*SPEF "ieee 1481-1999"
*DESIGN "Lut"
*DATE "18:32:52 Sunday May 03, 2026"
*VENDOR "The OpenROAD Project"
*PROGRAM "OpenROAD"
*VERSION "edf00dff99f6c40d67a30c0e22a8191c5d2ed9d6"
*DESIGN_FLOW "NAME_SCOPE LOCAL" "PIN_CAP NONE"
*DIVIDER /
*DELIMITER :
*BUS_DELIMITER []
*T_UNIT 1 NS
*C_UNIT 1 PF
*R_UNIT 1 OHM
*L_UNIT 1 HENRY

*NAME_MAP
*1 _000_
*2 _001_
*3 _002_
*4 _003_
*5 _004_
*6 _005_
*7 _006_
*8 _007_
*9 _008_
*10 _009_
*11 _010_
*12 _011_
*13 _012_
*14 _013_
*15 _014_
*16 _015_
*17 _016_
*18 _017_
*19 _018_
*20 _019_
*21 _020_
*22 _021_
*23 _022_
*24 _023_
*25 _024_
*26 _025_
*27 _026_
*28 _027_
*29 _028_
*30 _029_
*31 _030_
*32 _031_
*33 _032_
*34 _033_
*35 _034_
*36 _035_
*37 _036_
*38 _037_
*39 _038_
*40 _039_
*41 _040_
*42 _041_
*43 _042_
*44 _043_
*45 _044_
*46 _045_
*47 _046_
*48 _047_
*49 _048_
*50 _049_
*51 _050_
*52 _051_
*53 _052_
*54 _053_
*55 _054_
*56 a[0]
*57 a[1]
*58 a[2]
*59 a[3]
*60 a[4]
*61 b[0]
*62 b[1]
*63 b[2]
*64 b[3]
*65 b[4]
*66 clk
*67 out[0]
*68 out[1]
*69 out[2]
*70 out[3]
*71 out[4]
*72 out_reg[0]
*73 out_reg[1]
*74 out_reg[2]
*75 out_reg[3]
*76 out_reg[4]
*77 reset
*78 s[0]
*79 s[1]
*80 sync
*81 y[0]
*82 y[1]
*83 y[2]
*84 y[3]
*85 y[4]
*88 clknet_0_clk
*89 clknet_1_0__leaf_clk
*90 clknet_1_1__leaf_clk
*91 _055_
*92 _056_
*93 _057_
*94 _058_
*95 _059_
*96 _060_
*97 _061_
*98 _062_
*99 _063_
*100 _064_
*101 _065_
*102 _066_
*103 _067_
*104 _068_
*105 _069_
*106 _070_
*107 _071_
*108 _072_
*109 _073_
*110 _074_
*111 _075_
*112 _076_
*113 _077_
*114 _078_
*115 _079_
*116 _080_
*117 _081_
*118 _082_
*119 _083_
*120 _084_
*121 _085_
*122 _086_
*123 _087_
*124 _088_
*125 _089_
*126 _090_
*127 _091_
*128 _092_
*129 _093_
*130 _094_
*131 _095_
*132 _096_
*133 _097_
*134 _098_
*135 _099_
*136 _100_
*137 _101_
*138 _102_
*139 _103_
*140 _104_
*141 _105_
*142 _106_
*143 _107_
*144 _108_
*145 _109_
*146 _110_
*147 _111_
*148 _112_
*149 _113_
*150 _114_
*151 _115_
*152 _116_
*153 _117_
*154 _118_
*155 _119_
*156 _120_
*157 _121_
*158 _122_
*159 _123_
*160 _124_
*161 PHY_EDGE_ROW_0_Right_0
*162 PHY_EDGE_ROW_1_Right_1
*163 PHY_EDGE_ROW_2_Right_2
*164 PHY_EDGE_ROW_3_Right_3
*165 PHY_EDGE_ROW_4_Right_4
*166 PHY_EDGE_ROW_5_Right_5
*167 PHY_EDGE_ROW_6_Right_6
*168 PHY_EDGE_ROW_7_Right_7
*169 PHY_EDGE_ROW_8_Right_8
*170 PHY_EDGE_ROW_9_Right_9
*171 PHY_EDGE_ROW_10_Right_10
*172 PHY_EDGE_ROW_11_Right_11
*173 PHY_EDGE_ROW_12_Right_12
*174 PHY_EDGE_ROW_13_Right_13
*175 PHY_EDGE_ROW_14_Right_14
*176 PHY_EDGE_ROW_0_Left_15
*177 PHY_EDGE_ROW_1_Left_16
*178 PHY_EDGE_ROW_2_Left_17
*179 PHY_EDGE_ROW_3_Left_18
*180 PHY_EDGE_ROW_4_Left_19
*181 PHY_EDGE_ROW_5_Left_20
*182 PHY_EDGE_ROW_6_Left_21
*183 PHY_EDGE_ROW_7_Left_22
*184 PHY_EDGE_ROW_8_Left_23
*185 PHY_EDGE_ROW_9_Left_24
*186 PHY_EDGE_ROW_10_Left_25
*187 PHY_EDGE_ROW_11_Left_26
*188 PHY_EDGE_ROW_12_Left_27
*189 PHY_EDGE_ROW_13_Left_28
*190 PHY_EDGE_ROW_14_Left_29
*191 TAP_TAPCELL_ROW_0_30
*192 TAP_TAPCELL_ROW_0_31
*193 TAP_TAPCELL_ROW_0_32
*194 TAP_TAPCELL_ROW_1_33
*195 TAP_TAPCELL_ROW_2_34
*196 TAP_TAPCELL_ROW_2_35
*197 TAP_TAPCELL_ROW_3_36
*198 TAP_TAPCELL_ROW_4_37
*199 TAP_TAPCELL_ROW_4_38
*200 TAP_TAPCELL_ROW_5_39
*201 TAP_TAPCELL_ROW_6_40
*202 TAP_TAPCELL_ROW_6_41
*203 TAP_TAPCELL_ROW_7_42
*204 TAP_TAPCELL_ROW_8_43
*205 TAP_TAPCELL_ROW_8_44
*206 TAP_TAPCELL_ROW_9_45
*207 TAP_TAPCELL_ROW_10_46
*208 TAP_TAPCELL_ROW_10_47
*209 TAP_TAPCELL_ROW_11_48
*210 TAP_TAPCELL_ROW_12_49
*211 TAP_TAPCELL_ROW_12_50
*212 TAP_TAPCELL_ROW_13_51
*213 TAP_TAPCELL_ROW_14_52
*214 TAP_TAPCELL_ROW_14_53
*215 TAP_TAPCELL_ROW_14_54
*216 clkbuf_0_clk
*217 clkbuf_1_0__f_clk
*218 clkbuf_1_1__f_clk
*219 clkload0
*220 FILLER_0_4
*221 FILLER_0_12
*222 FILLER_0_20
*223 FILLER_0_29
*224 FILLER_0_51
*225 FILLER_0_55
*226 FILLER_0_57
*227 FILLER_0_61
*228 FILLER_0_63
*229 FILLER_0_67
*230 FILLER_0_75
*231 FILLER_0_83
*232 FILLER_0_85
*233 FILLER_1_4
*234 FILLER_1_12
*235 FILLER_1_77
*236 FILLER_1_85
*237 FILLER_2_4
*238 FILLER_2_12
*239 FILLER_2_20
*240 FILLER_2_50
*241 FILLER_2_54
*242 FILLER_2_76
*243 FILLER_2_85
*244 FILLER_3_4
*245 FILLER_3_12
*246 FILLER_3_20
*247 FILLER_3_28
*248 FILLER_3_55
*249 FILLER_3_64
*250 FILLER_3_72
*251 FILLER_3_80
*252 FILLER_3_84
*253 FILLER_4_4
*254 FILLER_4_12
*255 FILLER_4_20
*256 FILLER_4_29
*257 FILLER_4_37
*258 FILLER_4_41
*259 FILLER_4_75
*260 FILLER_4_83
*261 FILLER_4_85
*262 FILLER_5_4
*263 FILLER_5_8
*264 FILLER_5_10
*265 FILLER_5_15
*266 FILLER_5_23
*267 FILLER_5_31
*268 FILLER_5_39
*269 FILLER_5_43
*270 FILLER_5_48
*271 FILLER_5_74
*272 FILLER_5_80
*273 FILLER_5_84
*274 FILLER_6_4
*275 FILLER_6_8
*276 FILLER_6_37
*277 FILLER_6_41
*278 FILLER_6_50
*279 FILLER_6_54
*280 FILLER_6_58
*281 FILLER_6_80
*282 FILLER_6_85
*283 FILLER_7_4
*284 FILLER_7_12
*285 FILLER_7_16
*286 FILLER_7_36
*287 FILLER_7_38
*288 FILLER_7_50
*289 FILLER_7_57
*290 FILLER_7_61
*291 FILLER_7_85
*292 FILLER_8_4
*293 FILLER_8_12
*294 FILLER_8_20
*295 FILLER_8_37
*296 FILLER_8_45
*297 FILLER_8_53
*298 FILLER_8_57
*299 FILLER_8_85
*300 FILLER_9_4
*301 FILLER_9_12
*302 FILLER_9_20
*303 FILLER_9_26
*304 FILLER_9_30
*305 FILLER_9_38
*306 FILLER_9_46
*307 FILLER_9_54
*308 FILLER_9_63
*309 FILLER_10_4
*310 FILLER_10_12
*311 FILLER_10_20
*312 FILLER_10_29
*313 FILLER_10_40
*314 FILLER_10_72
*315 FILLER_10_80
*316 FILLER_10_85
*317 FILLER_11_4
*318 FILLER_11_12
*319 FILLER_11_16
*320 FILLER_11_26
*321 FILLER_11_30
*322 FILLER_11_42
*323 FILLER_11_55
*324 FILLER_11_57
*325 FILLER_11_59
*326 FILLER_11_72
*327 FILLER_11_80
*328 FILLER_11_84
*329 FILLER_12_4
*330 FILLER_12_12
*331 FILLER_12_20
*332 FILLER_12_24
*333 FILLER_12_41
*334 FILLER_12_45
*335 FILLER_12_54
*336 FILLER_12_62
*337 FILLER_12_70
*338 FILLER_12_78
*339 FILLER_12_82
*340 FILLER_12_85
*341 FILLER_13_4
*342 FILLER_13_12
*343 FILLER_13_38
*344 FILLER_13_42
*345 FILLER_13_55
*346 FILLER_13_60
*347 FILLER_13_68
*348 FILLER_13_76
*349 FILLER_13_84
*350 FILLER_14_4
*351 FILLER_14_12
*352 FILLER_14_20
*353 FILLER_14_29
*354 FILLER_14_37
*355 FILLER_14_45
*356 FILLER_14_50
*357 FILLER_14_54
*358 FILLER_14_57
*359 FILLER_14_65
*360 FILLER_14_73
*361 FILLER_14_81
*362 FILLER_14_83
*363 FILLER_14_85

*PORTS
a[0] I
a[1] I
a[2] I
a[3] I
a[4] I
b[0] I
b[1] I
b[2] I
b[3] I
b[4] I
clk I
out[0] O
out[1] O
out[2] O
out[3] O
out[4] O
reset I
s[0] I
s[1] I
sync I

*D_NET *1 0.000296445
*CONN
*I *159:RESET_B I *D sky130_fd_sc_hd__dfrtp_1
*I *92:Y O *D sky130_fd_sc_hd__clkinv_1
*CAP
1 *159:RESET_B 8.25955e-05
2 *92:Y 8.25955e-05
3 *159:RESET_B *92:A 4.99619e-05
4 *159:RESET_B *15:10 8.12923e-05
*RES
1 *92:Y *159:RESET_B 11.52 
*END

*D_NET *2 0.000338711
*CONN
*I *158:RESET_B I *D sky130_fd_sc_hd__dfrtp_1
*I *152:Y O *D sky130_fd_sc_hd__clkinv_1
*CAP
1 *158:RESET_B 0.000143307
2 *152:Y 0.000143307
3 *158:RESET_B *147:S 5.20968e-05
*RES
1 *152:Y *158:RESET_B 21.0633 
*END

*D_NET *3 0.000553954
*CONN
*I *157:RESET_B I *D sky130_fd_sc_hd__dfrtp_1
*I *153:Y O *D sky130_fd_sc_hd__clkinv_1
*CAP
1 *157:RESET_B 0.000171147
2 *153:Y 0.000171147
3 *157:RESET_B *157:D 3.05373e-05
4 *157:RESET_B *61:9 0.000164679
5 *157:RESET_B *77:17 1.54837e-05
6 *157:RESET_B *77:35 9.60582e-07
*RES
1 *153:Y *157:RESET_B 22.0843 
*END

*D_NET *4 0.00163681
*CONN
*I *156:RESET_B I *D sky130_fd_sc_hd__dfrtp_1
*I *154:Y O *D sky130_fd_sc_hd__clkinv_1
*CAP
1 *156:RESET_B 0.000810512
2 *154:Y 0.000810512
3 *156:RESET_B *149:A0 9.18456e-06
4 *156:RESET_B *149:A1 0
5 *156:RESET_B *154:A 6.60261e-06
*RES
1 *154:Y *156:RESET_B 29.9527 
*END

*D_NET *5 0.000717759
*CONN
*I *160:RESET_B I *D sky130_fd_sc_hd__dfrtp_1
*I *155:Y O *D sky130_fd_sc_hd__clkinv_1
*CAP
1 *160:RESET_B 0.00018523
2 *155:Y 0.00018523
3 *160:RESET_B *148:S 0.000137571
4 *160:RESET_B *150:A_N 0.000139245
5 *160:RESET_B *152:A 1.83847e-05
6 *160:RESET_B *17:8 0
7 *160:RESET_B *71:16 5.20968e-05
*RES
1 *155:Y *160:RESET_B 22.8149 
*END

*D_NET *6 0.000319359
*CONN
*I *106:B I *D sky130_fd_sc_hd__maj3_1
*I *91:Y O *D sky130_fd_sc_hd__clkinv_1
*CAP
1 *106:B 9.49907e-05
2 *91:Y 9.49907e-05
3 *106:B *106:A 0.000121413
4 *106:B *106:C 7.9642e-06
5 *106:B *10:14 0
*RES
1 *91:Y *106:B 29.8856 
*END

*D_NET *7 0.000712015
*CONN
*I *116:B I *D sky130_fd_sc_hd__nor3_1
*I *93:Y O *D sky130_fd_sc_hd__nor2_1
*CAP
1 *116:B 0.000191345
2 *93:Y 0.000191345
3 *116:B *115:A2 8.65961e-05
4 *116:B *8:12 4.99619e-05
5 *116:B *59:42 0.000164874
6 *116:B *64:26 1.91597e-05
7 *116:B *79:27 8.73389e-06
*RES
1 *93:Y *116:B 23.04 
*END

*D_NET *8 0.00178878
*CONN
*I *137:A1 I *D sky130_fd_sc_hd__o21ai_0
*I *114:A I *D sky130_fd_sc_hd__xor2_1
*I *108:A I *D sky130_fd_sc_hd__xnor2_1
*I *94:X O *D sky130_fd_sc_hd__xor2_1
*CAP
1 *137:A1 0.000127352
2 *114:A 0
3 *108:A 2.12116e-05
4 *94:X 0.000135436
5 *8:21 0.000200455
6 *8:12 0.00022975
7 *108:A *108:B 4.82863e-05
8 *137:A1 *108:B 0.000346595
9 *137:A1 *118:A1 0.00013521
10 *137:A1 *118:A2 3.79854e-05
11 *137:A1 *118:B1 0.000119762
12 *137:A1 *26:12 7.21296e-06
13 *8:12 *113:SLEEP 7.70938e-05
14 *8:12 *59:40 1.16578e-05
15 *8:12 *59:42 1.60203e-05
16 *8:12 *79:21 0
17 *8:21 *108:B 0.000151222
18 *8:21 *118:A2 7.35729e-05
19 *116:B *8:12 4.99619e-05
*RES
1 *94:X *8:12 21.3349 
2 *8:12 *108:A 9.86203 
3 *8:12 *8:21 2.71646 
4 *8:21 *114:A 9.3 
5 *8:21 *137:A1 23.5081 
*END

*D_NET *9 0.000704165
*CONN
*I *122:B I *D sky130_fd_sc_hd__nor3_1
*I *95:Y O *D sky130_fd_sc_hd__nor2_1
*CAP
1 *122:B 0.000213934
2 *95:Y 0.000213934
3 *122:B *96:A 2.30292e-05
4 *122:B *96:B 0.000149765
5 *122:B *122:C 3.00381e-05
6 *122:B *58:31 1.08758e-05
7 *122:B *79:90 6.25897e-05
*RES
1 *95:Y *122:B 23.4709 
*END

*D_NET *10 0.00223852
*CONN
*I *120:A I *D sky130_fd_sc_hd__nand3_1
*I *111:A_N I *D sky130_fd_sc_hd__nand2b_1
*I *105:A I *D sky130_fd_sc_hd__lpflow_isobufsrc_1
*I *119:A I *D sky130_fd_sc_hd__nor2b_1
*I *96:Y O *D sky130_fd_sc_hd__xnor2_1
*CAP
1 *120:A 0.000158075
2 *111:A_N 0
3 *105:A 6.03284e-05
4 *119:A 0
5 *96:Y 9.22665e-05
6 *10:20 0.000166942
7 *10:14 0.000316782
8 *10:8 0.00046051
9 *105:A *18:20 6.83659e-05
10 *120:A *120:C 6.02949e-05
11 *120:A *121:A1 0.000138175
12 *120:A *129:C 0
13 *120:A *58:19 0.000239807
14 *120:A *58:21 0.000163204
15 *120:A *63:34 5.05521e-05
16 *10:8 *106:A 0
17 *10:8 *121:A1 0
18 *10:8 *58:19 0
19 *10:8 *63:15 0
20 *10:14 *106:A 0
21 *10:14 *112:C 0
22 *10:14 *20:14 9.66021e-05
23 *10:20 *106:C 0
24 *10:20 *112:C 3.59531e-06
25 *10:20 *20:14 0.000163019
26 *10:20 *26:12 0
27 *106:B *10:14 0
*RES
1 *96:Y *10:8 15.5235 
2 *10:8 *10:14 9.03368 
3 *10:14 *10:20 11.9975 
4 *10:20 *119:A 9.3 
5 *10:20 *105:A 10.7238 
6 *10:14 *111:A_N 9.3 
7 *10:8 *120:A 20.5162 
*END

*D_NET *11 0.00110701
*CONN
*I *104:B1 I *D sky130_fd_sc_hd__a21oi_1
*I *97:X O *D sky130_fd_sc_hd__lpflow_isobufsrc_1
*CAP
1 *104:B1 0.000326862
2 *97:X 0.000326862
3 *104:B1 *125:A 8.67294e-05
4 *104:B1 *131:A1 0.000180878
5 *104:B1 *131:B1 8.77336e-05
6 *104:B1 *18:16 2.83709e-05
7 *104:B1 *71:16 6.95753e-05
*RES
1 *97:X *104:B1 34.3443 
*END

*D_NET *12 0.00191794
*CONN
*I *120:B I *D sky130_fd_sc_hd__nand3_1
*I *110:B1 I *D sky130_fd_sc_hd__o21ai_0
*I *98:Y O *D sky130_fd_sc_hd__nand2_1
*CAP
1 *120:B 0.000305573
2 *110:B1 4.3247e-05
3 *98:Y 0.000234046
4 *12:16 0.000582866
5 *110:B1 *110:A1 4.87465e-06
6 *110:B1 *129:C 8.73791e-06
7 *110:B1 *13:20 1.35667e-05
8 *110:B1 *24:10 7.09004e-06
9 *120:B *110:A1 8.30124e-05
10 *120:B *110:A2 1.19928e-05
11 *120:B *112:C 0
12 *120:B *120:C 4.2021e-05
13 *120:B *123:A1 4.9253e-06
14 *120:B *123:A3 7.4027e-05
15 *120:B *123:B1 2.20249e-05
16 *120:B *24:10 3.0286e-05
17 *120:B *45:10 4.93919e-05
18 *120:B *58:19 8.53113e-06
19 *120:B *78:50 0
20 *12:16 *120:C 3.99313e-05
21 *12:16 *129:A 1.88602e-05
22 *12:16 *130:B1 6.75471e-05
23 *12:16 *45:10 3.86814e-05
24 *12:16 *54:18 1.38129e-05
25 *12:16 *62:5 0.00013637
26 *12:16 *62:37 7.65277e-05
*RES
1 *98:Y *12:16 21.9662 
2 *12:16 *110:B1 14.9428 
3 *12:16 *120:B 28.439 
*END

*D_NET *13 0.00172792
*CONN
*I *129:B I *D sky130_fd_sc_hd__nor3_1
*I *110:A1 I *D sky130_fd_sc_hd__o21ai_0
*I *99:Y O *D sky130_fd_sc_hd__nor2_1
*CAP
1 *129:B 0
2 *110:A1 5.3361e-05
3 *99:Y 0.000137949
4 *13:22 0.000127765
5 *13:20 0.000311591
6 *13:12 0.000375135
7 *110:A1 *110:A2 2.05056e-05
8 *110:A1 *123:B1 4.71334e-05
9 *13:12 *99:A 8.35106e-05
10 *13:12 *129:C 5.53549e-06
11 *13:12 *45:10 3.60738e-06
12 *13:12 *54:18 9.13528e-05
13 *13:12 *62:11 0.000106344
14 *13:12 *62:37 1.92979e-05
15 *13:20 *130:B1 2.95721e-05
16 *13:20 *24:10 0.000157085
17 *13:20 *45:10 1.1071e-05
18 *13:20 *54:18 2.16091e-05
19 *13:22 *35:18 2.40405e-05
20 *110:B1 *110:A1 4.87465e-06
21 *110:B1 *13:20 1.35667e-05
22 *120:B *110:A1 8.30124e-05
*RES
1 *99:Y *13:12 17.397 
2 *13:12 *13:20 17.7154 
3 *13:20 *13:22 78.2508 
4 *13:22 *110:A1 20.0425 
5 *13:12 *129:B 13.8 
*END

*D_NET *14 0.00267366
*CONN
*I *125:A I *D sky130_fd_sc_hd__nor2_1
*I *104:A1 I *D sky130_fd_sc_hd__a21oi_1
*I *126:A1 I *D sky130_fd_sc_hd__a21o_1
*I *109:A I *D sky130_fd_sc_hd__lpflow_inputiso1p_1
*I *127:A I *D sky130_fd_sc_hd__nand2_1
*I *100:Y O *D sky130_fd_sc_hd__xnor2_1
*CAP
1 *125:A 0.000222281
2 *104:A1 0
3 *126:A1 0
4 *109:A 0
5 *127:A 9.73191e-06
6 *100:Y 0
7 *14:26 0.000243106
8 *14:16 0.000289993
9 *14:10 0.000268677
10 *14:4 0.000434339
11 *125:A out[2] 6.02639e-05
12 *125:A *97:SLEEP 2.8185e-05
13 *125:A *125:B 9.50342e-06
14 *125:A *57:19 5.30673e-05
15 *125:A *71:16 3.76596e-05
16 *127:A *109:SLEEP 4.82863e-05
17 *127:A *130:A3 4.82863e-05
18 *14:10 out[2] 0
19 *14:10 *104:A2 5.16348e-05
20 *14:10 *130:B1 1.37226e-05
21 *14:10 *57:19 4.47209e-05
22 *14:10 *57:23 5.83121e-06
23 *14:16 *104:A2 9.30787e-05
24 *14:16 *126:A2 4.99619e-05
25 *14:16 *131:A2 8.65905e-05
26 *14:26 *109:SLEEP 7.44125e-05
27 *14:26 *130:A2 4.86642e-05
28 *14:26 *130:A3 0.000121643
29 *14:26 *131:A2 0.00016436
30 *14:26 *18:16 2.5195e-05
31 *14:26 *54:18 5.12855e-05
32 *14:26 *83:8 2.44495e-06
33 *104:B1 *125:A 8.67294e-05
*RES
1 *100:Y *14:4 9.3 
2 *14:4 *14:10 8.1719 
3 *14:10 *14:16 6.89798 
4 *14:16 *14:26 15.6132 
5 *14:26 *127:A 9.86203 
6 *14:26 *109:A 9.3 
7 *14:16 *126:A1 9.3 
8 *14:10 *104:A1 13.8 
9 *14:4 *125:A 23.1896 
*END

*D_NET *15 0.00482452
*CONN
*I *109:SLEEP I *D sky130_fd_sc_hd__lpflow_inputiso1p_1
*I *127:B I *D sky130_fd_sc_hd__nand2_1
*I *110:A2 I *D sky130_fd_sc_hd__o21ai_0
*I *133:A2 I *D sky130_fd_sc_hd__o22ai_1
*I *101:Y O *D sky130_fd_sc_hd__nand2_1
*CAP
1 *109:SLEEP 3.28779e-05
2 *127:B 2.08101e-05
3 *110:A2 0.000152079
4 *133:A2 0
5 *101:Y 0.000265443
6 *15:38 8.52243e-05
7 *15:21 0.000536668
8 *15:10 0.000618495
9 *109:SLEEP *130:A2 1.61831e-05
10 *109:SLEEP *130:A3 2.30292e-05
11 *109:SLEEP *18:16 0.000187649
12 *110:A2 *123:A2 0
13 *110:A2 *123:B1 4.73054e-05
14 *110:A2 *124:B1 0.000162332
15 *110:A2 *130:A2 4.38278e-05
16 *110:A2 *18:16 0.000122325
17 *110:A2 *24:10 0.000119669
18 *110:A2 *78:50 0.000109441
19 *127:B *18:16 0
20 *15:10 *92:A 2.203e-05
21 *15:10 *101:B 4.89295e-05
22 *15:10 *133:A1 3.25831e-05
23 *15:10 *133:B1 0
24 *15:10 *81:8 0.000231557
25 *15:21 *133:A1 0.000185398
26 *15:21 *142:A1 3.76596e-05
27 *15:21 *142:B1 0.000137578
28 *15:21 *151:A4 4.92014e-05
29 *15:21 *45:10 0.000269053
30 *15:21 *78:37 0.00015997
31 *15:21 *78:50 0.000667205
32 *15:21 *81:8 4.54719e-05
33 *15:38 *130:A2 4.65698e-05
34 *15:38 *18:16 0.000111461
35 *110:A1 *110:A2 2.05056e-05
36 *120:B *110:A2 1.19928e-05
37 *127:A *109:SLEEP 4.82863e-05
38 *159:RESET_B *15:10 8.12923e-05
39 *14:26 *109:SLEEP 7.44125e-05
*RES
1 *101:Y *15:10 20.6942 
2 *15:10 *133:A2 13.8 
3 *15:10 *15:21 19.2813 
4 *15:21 *110:A2 24.1451 
5 *15:21 *15:38 1.4238 
6 *15:38 *127:B 9.74962 
7 *15:38 *109:SLEEP 11.5856 
*END

*D_NET *16 0.00203372
*CONN
*I *133:B1 I *D sky130_fd_sc_hd__o22ai_1
*I *102:Y O *D sky130_fd_sc_hd__xnor2_1
*CAP
1 *133:B1 0.000676543
2 *102:Y 0.000676543
3 *133:B1 *101:B 0.000114745
4 *133:B1 *133:B2 3.29947e-05
5 *133:B1 *146:A1 0
6 *133:B1 *216:A 0.000314042
7 *133:B1 *217:A 0.000172797
8 *133:B1 *56:13 4.60584e-05
9 *15:10 *133:B1 0
*RES
1 *102:Y *133:B1 39.6086 
*END

*D_NET *17 0.00245608
*CONN
*I *125:B I *D sky130_fd_sc_hd__nor2_1
*I *104:A2 I *D sky130_fd_sc_hd__a21oi_1
*I *126:A2 I *D sky130_fd_sc_hd__a21o_1
*I *103:Y O *D sky130_fd_sc_hd__nand2b_1
*CAP
1 *125:B 5.49678e-05
2 *104:A2 5.75237e-05
3 *126:A2 3.41436e-05
4 *103:Y 0.000436416
5 *17:12 0.000183954
6 *17:8 0.000583671
7 *104:A2 *126:B1 0
8 *104:A2 *131:A2 1.73877e-05
9 *104:A2 *82:14 0.000116165
10 *125:B out[2] 0.000136884
11 *125:B *71:16 6.31891e-05
12 *125:B *82:14 0
13 *126:A2 *131:A2 2.05056e-05
14 *17:8 *148:S 0
15 *17:8 *151:A2 6.10014e-05
16 *17:8 *151:A3 8.26527e-05
17 *17:8 *71:16 0.000275503
18 *17:8 *82:14 0
19 *17:12 out[2] 8.8266e-05
20 *17:12 *131:A2 3.96737e-05
21 *125:A *125:B 9.50342e-06
22 *160:RESET_B *17:8 0
23 *14:10 *104:A2 5.16348e-05
24 *14:16 *104:A2 9.30787e-05
25 *14:16 *126:A2 4.99619e-05
*RES
1 *103:Y *17:8 26.0334 
2 *17:8 *17:12 6.78557 
3 *17:12 *126:A2 10.2929 
4 *17:12 *104:A2 20.6605 
5 *17:8 *125:B 16.1605 
*END

*D_NET *18 0.0033504
*CONN
*I *105:SLEEP I *D sky130_fd_sc_hd__lpflow_isobufsrc_1
*I *119:B_N I *D sky130_fd_sc_hd__nor2b_1
*I *106:C I *D sky130_fd_sc_hd__maj3_1
*I *104:Y O *D sky130_fd_sc_hd__a21oi_1
*CAP
1 *105:SLEEP 2.51456e-05
2 *119:B_N 0
3 *106:C 0.000299609
4 *104:Y 0.000619721
5 *18:20 0.000541766
6 *18:16 0.000887024
7 *106:C *106:A 2.36212e-05
8 *106:C *20:14 0
9 *106:C *79:15 7.45625e-05
10 *18:16 *130:A1 4.79235e-05
11 *18:16 *130:A2 0.000102508
12 *18:16 *130:A3 4.84807e-05
13 *18:16 *131:B1 4.31042e-05
14 *18:16 *19:8 8.56006e-05
15 *104:B1 *18:16 2.83709e-05
16 *105:A *18:20 6.83659e-05
17 *106:B *106:C 7.9642e-06
18 *109:SLEEP *18:16 0.000187649
19 *110:A2 *18:16 0.000122325
20 *127:B *18:16 0
21 *10:20 *106:C 0
22 *14:26 *18:16 2.5195e-05
23 *15:38 *18:16 0.000111461
*RES
1 *104:Y *18:16 21.702 
2 *18:16 *18:20 3.59697 
3 *18:20 *106:C 24.7633 
4 *18:20 *119:B_N 9.3 
5 *18:16 *105:SLEEP 10.0681 
*END

*D_NET *19 0.00106875
*CONN
*I *124:A1 I *D sky130_fd_sc_hd__o31ai_1
*I *105:X O *D sky130_fd_sc_hd__lpflow_isobufsrc_1
*CAP
1 *124:A1 0.000232294
2 *105:X 2.20595e-05
3 *19:10 0.000309849
4 *19:8 9.96146e-05
5 *124:A1 *124:A3 4.82919e-05
6 *124:A1 *124:B1 0.000160635
7 *124:A1 *27:8 7.73858e-05
8 *19:8 *130:A2 3.30234e-05
9 *18:16 *19:8 8.56006e-05
*RES
1 *105:X *19:8 19.5929 
2 *19:8 *19:10 78.2508 
3 *19:10 *124:A1 23.5084 
*END

*D_NET *20 0.00316052
*CONN
*I *137:A2 I *D sky130_fd_sc_hd__o21ai_0
*I *108:B I *D sky130_fd_sc_hd__xnor2_1
*I *106:X O *D sky130_fd_sc_hd__maj3_1
*CAP
1 *137:A2 0
2 *108:B 0.000482254
3 *106:X 0.000448148
4 *20:14 0.000930402
5 *108:B *118:B1 2.30292e-05
6 *108:B *26:12 6.28843e-05
7 *20:14 *113:SLEEP 0
8 *20:14 *118:A1 0.000102147
9 *20:14 *124:A3 0.000138551
10 *20:14 *26:12 0.000167377
11 *106:C *20:14 0
12 *108:A *108:B 4.82863e-05
13 *137:A1 *108:B 0.000346595
14 *8:21 *108:B 0.000151222
15 *10:14 *20:14 9.66021e-05
16 *10:20 *20:14 0.000163019
*RES
1 *106:X *20:14 25.5276 
2 *20:14 *108:B 23.4668 
3 *20:14 *137:A2 13.8 
*END

*D_NET *21 0.00473763
*CONN
*I *126:B1 I *D sky130_fd_sc_hd__a21o_1
*I *139:A I *D sky130_fd_sc_hd__nor2_1
*I *124:A2 I *D sky130_fd_sc_hd__o31ai_1
*I *118:A1 I *D sky130_fd_sc_hd__o21ai_0
*I *107:Y O *D sky130_fd_sc_hd__nand2_1
*CAP
1 *126:B1 0.000452712
2 *139:A 0
3 *124:A2 0
4 *118:A1 0.000191635
5 *107:Y 0
6 *21:36 0.000647267
7 *21:14 0.000530664
8 *21:4 0.000533584
9 *118:A1 *113:SLEEP 0
10 *118:A1 *117:A2 0.000178314
11 *118:A1 *137:B1 0
12 *118:A1 *26:12 0
13 *118:A1 *27:8 6.48748e-05
14 *126:B1 *145:A 5.99309e-05
15 *126:B1 *151:A2 4.25177e-05
16 *126:B1 *160:CLK 4.82863e-05
17 *126:B1 *218:A 8.18098e-05
18 *126:B1 *49:6 6.41532e-05
19 *126:B1 *54:18 0
20 *126:B1 *82:14 0
21 *126:B1 *85:26 4.99619e-05
22 *126:B1 *90:27 0
23 *21:14 *107:A 1.08758e-05
24 *21:14 *107:B 4.76871e-05
25 *21:14 *141:A1 3.24046e-05
26 *21:14 *141:A2 5.3023e-05
27 *21:14 *141:B1 0
28 *21:14 *142:A2 3.56424e-05
29 *21:14 *26:12 0.0005312
30 *21:14 *27:8 0.000141092
31 *21:14 *27:12 0.000183731
32 *21:14 *50:6 5.0751e-05
33 *21:14 *78:37 0
34 *21:14 *78:50 0
35 *21:14 *79:27 0.00016346
36 *21:14 *79:57 4.68714e-05
37 *21:14 *83:8 4.66108e-05
38 *21:36 *107:A 4.66108e-05
39 *21:36 *142:A1 4.82863e-05
40 *21:36 *142:A2 4.07273e-05
41 *21:36 *49:6 4.89295e-05
42 *21:36 *52:14 2.66586e-05
43 *104:A2 *126:B1 0
44 *137:A1 *118:A1 0.00013521
45 *20:14 *118:A1 0.000102147
*RES
1 *107:Y *21:4 9.3 
2 *21:4 *21:14 21.5613 
3 *21:14 *118:A1 23.9858 
4 *21:14 *124:A2 9.3 
5 *21:4 *21:36 4.45874 
6 *21:36 *139:A 9.3 
7 *21:36 *126:B1 29.1096 
*END

*D_NET *22 0.000615414
*CONN
*I *118:A2 I *D sky130_fd_sc_hd__o21ai_0
*I *108:Y O *D sky130_fd_sc_hd__xnor2_1
*CAP
1 *118:A2 0.000187026
2 *108:Y 0.000187026
3 *118:A2 *118:B1 8.1512e-05
4 *118:A2 *84:10 4.82919e-05
5 *137:A1 *118:A2 3.79854e-05
6 *8:21 *118:A2 7.35729e-05
*RES
1 *108:Y *118:A2 23.0587 
*END

*D_NET *23 0.0024151
*CONN
*I *130:A1 I *D sky130_fd_sc_hd__a31oi_1
*I *120:C I *D sky130_fd_sc_hd__nand3_1
*I *109:X O *D sky130_fd_sc_hd__lpflow_inputiso1p_1
*CAP
1 *130:A1 9.21188e-05
2 *120:C 0.000617675
3 *109:X 0
4 *23:4 0.000709794
5 *120:C *128:B1 2.49909e-05
6 *120:C *130:A2 0.000345442
7 *120:C *130:A3 1.43191e-05
8 *120:C *45:10 8.08479e-05
9 *120:C *58:19 4.99619e-05
10 *120:C *78:50 0.000237127
11 *130:A1 *130:A3 5.26504e-05
12 *120:A *120:C 6.02949e-05
13 *120:B *120:C 4.2021e-05
14 *12:16 *120:C 3.99313e-05
15 *18:16 *130:A1 4.79235e-05
*RES
1 *109:X *23:4 9.3 
2 *23:4 *120:C 30.5334 
3 *23:4 *130:A1 11.623 
*END

*D_NET *24 0.00120711
*CONN
*I *112:C I *D sky130_fd_sc_hd__maj3_1
*I *111:B I *D sky130_fd_sc_hd__nand2b_1
*I *110:Y O *D sky130_fd_sc_hd__o21ai_0
*CAP
1 *112:C 8.38425e-05
2 *111:B 0
3 *110:Y 0.000255976
4 *24:10 0.000339819
5 *112:C *26:12 6.17032e-05
6 *24:10 *123:A1 0.000122337
7 *24:10 *123:A3 4.87465e-06
8 *24:10 *123:B1 2.08358e-05
9 *110:A2 *24:10 0.000119669
10 *110:B1 *24:10 7.09004e-06
11 *120:B *112:C 0
12 *120:B *24:10 3.0286e-05
13 *10:14 *112:C 0
14 *10:20 *112:C 3.59531e-06
15 *13:20 *24:10 0.000157085
*RES
1 *110:Y *24:10 15.6415 
2 *24:10 *111:B 9.3 
3 *24:10 *112:C 20.342 
*END

*D_NET *25 0.000238915
*CONN
*I *123:A1 I *D sky130_fd_sc_hd__a31oi_1
*I *111:Y O *D sky130_fd_sc_hd__nand2b_1
*CAP
1 *123:A1 4.20693e-05
2 *111:Y 4.20693e-05
3 *123:A1 *123:A3 2.75145e-05
4 *120:B *123:A1 4.9253e-06
5 *24:10 *123:A1 0.000122337
*RES
1 *111:Y *123:A1 20.0238 
*END

*D_NET *26 0.00315015
*CONN
*I *140:C I *D sky130_fd_sc_hd__maj3_1
*I *114:B I *D sky130_fd_sc_hd__xor2_1
*I *112:X O *D sky130_fd_sc_hd__maj3_1
*CAP
1 *140:C 0
2 *114:B 0.000152835
3 *112:X 0.000497488
4 *26:12 0.000650323
5 *114:B *113:SLEEP 0
6 *114:B *117:A2 4.18603e-06
7 *114:B *137:B1 0.000140912
8 *114:B *59:17 3.74161e-05
9 *114:B *59:19 0.000161529
10 *114:B *59:40 2.15594e-05
11 *114:B *79:27 0.000238919
12 *114:B *84:10 0
13 *26:12 *123:A2 8.17732e-05
14 *26:12 *123:A3 4.05358e-05
15 *26:12 *124:A3 7.3664e-05
16 *26:12 *27:12 1.07797e-05
17 *26:12 *27:36 0.000122977
18 *26:12 *50:6 3.64998e-06
19 *26:12 *59:17 4.61701e-06
20 *26:12 *78:50 0
21 *26:12 *79:27 7.66083e-05
22 *26:12 *84:10 0
23 *108:B *26:12 6.28843e-05
24 *112:C *26:12 6.17032e-05
25 *118:A1 *26:12 0
26 *137:A1 *26:12 7.21296e-06
27 *10:20 *26:12 0
28 *20:14 *26:12 0.000167377
29 *21:14 *26:12 0.0005312
*RES
1 *112:X *26:12 34.3927 
2 *26:12 *114:B 24.0139 
3 *26:12 *140:C 9.3 
*END

*D_NET *27 0.00459958
*CONN
*I *123:A2 I *D sky130_fd_sc_hd__a31oi_1
*I *130:A2 I *D sky130_fd_sc_hd__a31oi_1
*I *141:B1 I *D sky130_fd_sc_hd__o21ai_0
*I *117:A1 I *D sky130_fd_sc_hd__a21oi_1
*I *113:X O *D sky130_fd_sc_hd__lpflow_isobufsrc_1
*CAP
1 *123:A2 7.76564e-05
2 *130:A2 0.000409994
3 *141:B1 0.000193921
4 *117:A1 0.000187848
5 *113:X 0.000219424
6 *27:36 0.000576686
7 *27:12 0.0004854
8 *27:8 0.000412089
9 *117:A1 *117:A2 4.66108e-05
10 *117:A1 *137:B1 8.05167e-05
11 *117:A1 *47:10 4.55432e-05
12 *123:A2 *124:B1 3.68769e-05
13 *123:A2 *78:50 0
14 *130:A2 *130:A3 0.000198516
15 *130:A2 *130:B1 0
16 *130:A2 *54:18 4.61701e-06
17 *141:B1 *141:A1 1.52945e-05
18 *141:B1 *141:A2 5.53249e-06
19 *141:B1 *78:50 8.71001e-05
20 *27:8 *124:A3 4.99619e-05
21 *27:8 *124:B1 4.82863e-05
22 *27:8 *83:8 1.91597e-05
23 *27:12 *78:50 0
24 *27:36 *124:B1 7.97165e-05
25 *109:SLEEP *130:A2 1.61831e-05
26 *110:A2 *123:A2 0
27 *110:A2 *130:A2 4.38278e-05
28 *118:A1 *27:8 6.48748e-05
29 *120:C *130:A2 0.000345442
30 *124:A1 *27:8 7.73858e-05
31 *14:26 *130:A2 4.86642e-05
32 *15:38 *130:A2 4.65698e-05
33 *18:16 *130:A2 0.000102508
34 *19:8 *130:A2 3.30234e-05
35 *21:14 *141:B1 0
36 *21:14 *27:8 0.000141092
37 *21:14 *27:12 0.000183731
38 *26:12 *123:A2 8.17732e-05
39 *26:12 *27:12 1.07797e-05
40 *26:12 *27:36 0.000122977
*RES
1 *113:X *27:8 19.5327 
2 *27:8 *27:12 7.49747 
3 *27:12 *117:A1 12.897 
4 *27:12 *141:B1 22.5152 
5 *27:8 *27:36 3.31595 
6 *27:36 *130:A2 32.9165 
7 *27:36 *123:A2 16.1605 
*END

*D_NET *28 0.000590588
*CONN
*I *117:A2 I *D sky130_fd_sc_hd__a21oi_1
*I *114:X O *D sky130_fd_sc_hd__xor2_1
*CAP
1 *117:A2 0.000101372
2 *114:X 0.000101372
3 *117:A2 *118:B1 0.000112123
4 *117:A2 *137:B1 4.66108e-05
5 *114:B *117:A2 4.18603e-06
6 *117:A1 *117:A2 4.66108e-05
7 *118:A1 *117:A2 0.000178314
*RES
1 *114:X *117:A2 30.841 
*END

*D_NET *29 0.000428005
*CONN
*I *116:C I *D sky130_fd_sc_hd__nor3_1
*I *115:Y O *D sky130_fd_sc_hd__a21oi_1
*CAP
1 *116:C 0.000184459
2 *115:Y 0.000184459
3 *116:C *64:13 0
4 *116:C *64:26 0
5 *116:C *78:13 3.45679e-05
6 *116:C *79:27 2.45182e-05
*RES
1 *115:Y *116:C 31.5904 
*END

*D_NET *30 0.00165146
*CONN
*I *117:B1 I *D sky130_fd_sc_hd__a21oi_1
*I *116:Y O *D sky130_fd_sc_hd__nor3_1
*CAP
1 *117:B1 0.000533197
2 *116:Y 4.70974e-05
3 *30:16 0.000668996
4 *30:14 0.000148092
5 *30:12 6.60289e-05
6 *30:10 7.20694e-05
7 *30:8 6.54297e-05
8 *117:B1 *137:B1 5.05521e-05
*RES
1 *116:Y *30:8 19.162 
2 *30:8 *30:10 32.2209 
3 *30:10 *30:12 60.8617 
4 *30:12 *30:14 32.2209 
5 *30:14 *30:16 165.196 
6 *30:16 *117:B1 27.7798 
*END

*D_NET *31 0.000674573
*CONN
*I *118:B1 I *D sky130_fd_sc_hd__o21ai_0
*I *117:Y O *D sky130_fd_sc_hd__a21oi_1
*CAP
1 *118:B1 0.000138202
2 *117:Y 0.000138202
3 *118:B1 *137:B1 4.55602e-05
4 *118:B1 *84:10 1.61831e-05
5 *108:B *118:B1 2.30292e-05
6 *117:A2 *118:B1 0.000112123
7 *118:A2 *118:B1 8.1512e-05
8 *137:A1 *118:B1 0.000119762
*RES
1 *117:Y *118:B1 32.218 
*END

*D_NET *32 0.000423184
*CONN
*I *124:A3 I *D sky130_fd_sc_hd__o31ai_1
*I *119:Y O *D sky130_fd_sc_hd__nor2b_1
*CAP
1 *124:A3 5.63577e-05
2 *119:Y 5.63577e-05
3 *124:A1 *124:A3 4.82919e-05
4 *20:14 *124:A3 0.000138551
5 *26:12 *124:A3 7.3664e-05
6 *27:8 *124:A3 4.99619e-05
*RES
1 *119:Y *124:A3 30.2041 
*END

*D_NET *33 0.000328819
*CONN
*I *123:A3 I *D sky130_fd_sc_hd__a31oi_1
*I *120:Y O *D sky130_fd_sc_hd__nand3_1
*CAP
1 *123:A3 9.09337e-05
2 *120:Y 9.09337e-05
3 *120:B *123:A3 7.4027e-05
4 *123:A1 *123:A3 2.75145e-05
5 *24:10 *123:A3 4.87465e-06
6 *26:12 *123:A3 4.05358e-05
*RES
1 *120:Y *123:A3 30.1479 
*END

*D_NET *34 0.000348202
*CONN
*I *122:C I *D sky130_fd_sc_hd__nor3_1
*I *121:Y O *D sky130_fd_sc_hd__a21oi_1
*CAP
1 *122:C 6.20019e-05
2 *121:Y 6.20019e-05
3 *122:C *121:B1 3.02252e-05
4 *122:C *35:8 8.8266e-05
5 *122:C *79:90 6.63966e-05
6 *122:C *79:103 9.27255e-06
7 *122:B *122:C 3.00381e-05
*RES
1 *121:Y *122:C 21.3539 
*END

*D_NET *35 0.00147812
*CONN
*I *123:B1 I *D sky130_fd_sc_hd__a31oi_1
*I *122:Y O *D sky130_fd_sc_hd__nor3_1
*CAP
1 *123:B1 2.09441e-05
2 *122:Y 0.000264827
3 *35:18 5.58462e-05
4 *35:16 5.56525e-05
5 *35:14 7.58952e-05
6 *35:12 6.06077e-05
7 *35:10 0.000130376
8 *35:8 0.00038974
9 *35:8 *121:B1 0.000174628
10 *110:A1 *123:B1 4.71334e-05
11 *110:A2 *123:B1 4.73054e-05
12 *120:B *123:B1 2.20249e-05
13 *122:C *35:8 8.8266e-05
14 *13:22 *35:18 2.40405e-05
15 *24:10 *123:B1 2.08358e-05
*RES
1 *122:Y *35:8 23.04 
2 *35:8 *35:10 147.807 
3 *35:10 *35:12 11.5075 
4 *35:12 *35:14 60.8617 
5 *35:14 *35:16 29.408 
6 *35:16 *35:18 43.4727 
7 *35:18 *123:B1 19.5929 
*END

*D_NET *36 0.000915032
*CONN
*I *124:B1 I *D sky130_fd_sc_hd__o31ai_1
*I *123:Y O *D sky130_fd_sc_hd__a31oi_1
*CAP
1 *124:B1 0.000166923
2 *123:Y 0.000166923
3 *124:B1 *78:50 4.62396e-05
4 *124:B1 *83:8 4.7101e-05
5 *110:A2 *124:B1 0.000162332
6 *123:A2 *124:B1 3.68769e-05
7 *124:A1 *124:B1 0.000160635
8 *27:8 *124:B1 4.82863e-05
9 *27:36 *124:B1 7.97165e-05
*RES
1 *123:Y *124:B1 33.7261 
*END

*D_NET *37 0.000357023
*CONN
*I *131:A1 I *D sky130_fd_sc_hd__o21ai_0
*I *125:Y O *D sky130_fd_sc_hd__nor2_1
*CAP
1 *131:A1 5.82246e-05
2 *125:Y 5.82246e-05
3 *131:A1 *131:A2 2.75145e-05
4 *131:A1 *131:B1 3.21813e-05
5 *104:B1 *131:A1 0.000180878
*RES
1 *125:Y *131:A1 20.9043 
*END

*D_NET *38 0.00125444
*CONN
*I *131:A2 I *D sky130_fd_sc_hd__o21ai_0
*I *126:X O *D sky130_fd_sc_hd__a21o_1
*CAP
1 *131:A2 0.000325632
2 *126:X 0.000325632
3 *131:A2 out[2] 0.000162085
4 *131:A2 *131:B1 4.82863e-05
5 *131:A2 *82:14 3.67779e-05
6 *104:A2 *131:A2 1.73877e-05
7 *126:A2 *131:A2 2.05056e-05
8 *131:A1 *131:A2 2.75145e-05
9 *14:16 *131:A2 8.65905e-05
10 *14:26 *131:A2 0.00016436
11 *17:12 *131:A2 3.96737e-05
*RES
1 *126:X *131:A2 34.3256 
*END

*D_NET *39 0.000654663
*CONN
*I *130:A3 I *D sky130_fd_sc_hd__a31oi_1
*I *127:Y O *D sky130_fd_sc_hd__nand2_1
*CAP
1 *130:A3 7.3869e-05
2 *127:Y 7.3869e-05
3 *109:SLEEP *130:A3 2.30292e-05
4 *120:C *130:A3 1.43191e-05
5 *127:A *130:A3 4.82863e-05
6 *130:A1 *130:A3 5.26504e-05
7 *130:A2 *130:A3 0.000198516
8 *14:26 *130:A3 0.000121643
9 *18:16 *130:A3 4.84807e-05
*RES
1 *127:Y *130:A3 22.197 
*END

*D_NET *40 0.000589807
*CONN
*I *129:C I *D sky130_fd_sc_hd__nor3_1
*I *128:Y O *D sky130_fd_sc_hd__a21oi_1
*CAP
1 *129:C 0.000115181
2 *128:Y 0.000115181
3 *129:C *128:B1 1.08758e-05
4 *129:C *129:A 5.83121e-06
5 *129:C *45:10 0.000180793
6 *129:C *54:18 1.82476e-05
7 *129:C *62:11 0.000129424
8 *110:B1 *129:C 8.73791e-06
9 *120:A *129:C 0
10 *13:12 *129:C 5.53549e-06
*RES
1 *128:Y *129:C 31.4499 
*END

*D_NET *41 0.00152918
*CONN
*I *130:B1 I *D sky130_fd_sc_hd__a31oi_1
*I *129:Y O *D sky130_fd_sc_hd__nor3_1
*CAP
1 *130:B1 0.000632364
2 *129:Y 0.000632364
3 *130:B1 *45:10 0.000123291
4 *130:B1 *54:18 3.03154e-05
5 *130:A2 *130:B1 0
6 *12:16 *130:B1 6.75471e-05
7 *13:20 *130:B1 2.95721e-05
8 *14:10 *130:B1 1.37226e-05
*RES
1 *129:Y *130:B1 37.6507 
*END

*D_NET *42 0.000787414
*CONN
*I *131:B1 I *D sky130_fd_sc_hd__o21ai_0
*I *130:Y O *D sky130_fd_sc_hd__a31oi_1
*CAP
1 *131:B1 0.000227727
2 *130:Y 0.000227727
3 *131:B1 *82:14 0.000120655
4 *104:B1 *131:B1 8.77336e-05
5 *131:A1 *131:B1 3.21813e-05
6 *131:A2 *131:B1 4.82863e-05
7 *18:16 *131:B1 4.31042e-05
*RES
1 *130:Y *131:B1 23.958 
*END

*D_NET *43 0.000753743
*CONN
*I *133:B2 I *D sky130_fd_sc_hd__o22ai_1
*I *132:Y O *D sky130_fd_sc_hd__nor2_1
*CAP
1 *133:B2 8.98802e-05
2 *132:Y 0.000142804
3 *43:10 0.000179498
4 *43:8 0.000232422
5 *43:8 *78:33 1.11132e-05
6 *43:8 *79:35 6.50312e-05
7 *133:B1 *133:B2 3.29947e-05
*RES
1 *132:Y *43:8 20.8856 
2 *43:8 *43:10 95.6398 
3 *43:10 *133:B2 20.4547 
*END

*D_NET *44 0.000354933
*CONN
*I *144:B I *D sky130_fd_sc_hd__nor3_1
*I *134:Y O *D sky130_fd_sc_hd__nor2_1
*CAP
1 *144:B 0.000106639
2 *134:Y 0.000106639
3 *144:B *144:A 4.89295e-05
4 *144:B *60:17 9.27264e-05
*RES
1 *134:Y *144:B 20.8856 
*END

*D_NET *45 0.00351142
*CONN
*I *141:A1 I *D sky130_fd_sc_hd__o21ai_0
*I *138:A I *D sky130_fd_sc_hd__xor2_1
*I *142:A1 I *D sky130_fd_sc_hd__a21oi_1
*I *135:X O *D sky130_fd_sc_hd__xor2_1
*CAP
1 *141:A1 0.000162444
2 *138:A 0
3 *142:A1 7.37368e-05
4 *135:X 0.000590189
5 *45:25 0.000215491
6 *45:10 0.000716972
7 *141:A1 *138:B 0.000206804
8 *141:A1 *141:A2 9.50342e-06
9 *141:A1 *142:B1 6.07575e-06
10 *142:A1 *142:A2 2.49909e-05
11 *142:A1 *142:B1 0.00013687
12 *142:A1 *151:A4 0.000204456
13 *45:10 *129:A 7.23533e-05
14 *45:10 *135:B 4.66826e-05
15 *45:10 *151:A4 8.53113e-06
16 *45:10 *54:18 0
17 *45:10 *60:17 2.30292e-05
18 *45:10 *78:50 5.00617e-05
19 *45:10 *78:61 5.72091e-05
20 *45:25 *142:B1 1.56428e-05
21 *120:B *45:10 4.93919e-05
22 *120:C *45:10 8.08479e-05
23 *129:C *45:10 0.000180793
24 *130:B1 *45:10 0.000123291
25 *141:B1 *141:A1 1.52945e-05
26 *12:16 *45:10 3.86814e-05
27 *13:12 *45:10 3.60738e-06
28 *13:20 *45:10 1.1071e-05
29 *15:21 *142:A1 3.76596e-05
30 *15:21 *45:10 0.000269053
31 *21:14 *141:A1 3.24046e-05
32 *21:36 *142:A1 4.82863e-05
*RES
1 *135:X *45:10 29.6866 
2 *45:10 *142:A1 17.3595 
3 *45:10 *45:25 5.49291 
4 *45:25 *138:A 9.3 
5 *45:25 *141:A1 22.2342 
*END

*D_NET *46 0.00116852
*CONN
*I *137:B1 I *D sky130_fd_sc_hd__o21ai_0
*I *136:Y O *D sky130_fd_sc_hd__nand2b_1
*CAP
1 *137:B1 0.000397917
2 *136:Y 0.000397917
3 *137:B1 *113:SLEEP 0
4 *137:B1 *59:40 8.53113e-06
5 *114:B *137:B1 0.000140912
6 *117:A1 *137:B1 8.05167e-05
7 *117:A2 *137:B1 4.66108e-05
8 *117:B1 *137:B1 5.05521e-05
9 *118:A1 *137:B1 0
10 *118:B1 *137:B1 4.55602e-05
*RES
1 *136:Y *137:B1 36.5175 
*END

*D_NET *47 0.000836854
*CONN
*I *138:B I *D sky130_fd_sc_hd__xor2_1
*I *137:Y O *D sky130_fd_sc_hd__o21ai_0
*CAP
1 *138:B 0.000105564
2 *137:Y 5.08423e-05
3 *47:16 0.000138972
4 *47:14 5.32496e-05
5 *47:12 7.70686e-05
6 *47:10 0.000108069
7 *138:B *142:B1 5.07419e-05
8 *117:A1 *47:10 4.55432e-05
9 *141:A1 *138:B 0.000206804
*RES
1 *137:Y *47:10 32.4595 
2 *47:10 *47:12 60.8617 
3 *47:12 *47:14 27.6179 
4 *47:14 *47:16 43.4727 
5 *47:16 *138:B 21.7661 
*END

*D_NET *48 0.000403291
*CONN
*I *139:B I *D sky130_fd_sc_hd__nor2_1
*I *138:X O *D sky130_fd_sc_hd__xor2_1
*CAP
1 *139:B 0.000123767
2 *138:X 0.000123767
3 *139:B *145:A 0
4 *139:B *151:A4 0.000117097
5 *139:B *52:14 3.86607e-05
*RES
1 *138:X *139:B 30.7661 
*END

*D_NET *49 0.00229215
*CONN
*I *151:A2 I *D sky130_fd_sc_hd__o41a_4
*I *145:A I *D sky130_fd_sc_hd__or3_1
*I *139:Y O *D sky130_fd_sc_hd__nor2_1
*CAP
1 *151:A2 0.000380633
2 *145:A 0.00024071
3 *139:Y 0.000109184
4 *49:6 0.000730528
5 *145:A *151:A3 0.00016031
6 *145:A *151:A4 0
7 *151:A2 *151:A3 0.000116151
8 *151:A2 *151:B1 4.99619e-05
9 *151:A2 *71:16 2.75229e-05
10 *151:A2 *85:26 0.000200615
11 *126:B1 *145:A 5.99309e-05
12 *126:B1 *151:A2 4.25177e-05
13 *126:B1 *49:6 6.41532e-05
14 *139:B *145:A 0
15 *17:8 *151:A2 6.10014e-05
16 *21:36 *49:6 4.89295e-05
*RES
1 *139:Y *49:6 11.1547 
2 *49:6 *145:A 23.4706 
3 *49:6 *151:A2 25.4565 
*END

*D_NET *50 0.00114066
*CONN
*I *142:A2 I *D sky130_fd_sc_hd__a21oi_1
*I *141:A2 I *D sky130_fd_sc_hd__o21ai_0
*I *140:X O *D sky130_fd_sc_hd__maj3_1
*CAP
1 *142:A2 0.000203339
2 *141:A2 7.53978e-05
3 *140:X 9.00008e-05
4 *50:6 0.000368738
5 *141:A2 *78:50 0
6 *142:A2 *107:A 2.49909e-05
7 *142:A2 *107:B 2.70167e-05
8 *142:A2 *52:14 0.000118081
9 *50:6 *79:27 9.27255e-06
10 *141:A1 *141:A2 9.50342e-06
11 *141:B1 *141:A2 5.53249e-06
12 *142:A1 *142:A2 2.49909e-05
13 *21:14 *141:A2 5.3023e-05
14 *21:14 *142:A2 3.56424e-05
15 *21:14 *50:6 5.0751e-05
16 *21:36 *142:A2 4.07273e-05
17 *26:12 *50:6 3.64998e-06
*RES
1 *140:X *50:6 11.1547 
2 *50:6 *141:A2 20.342 
3 *50:6 *142:A2 14.0772 
*END

*D_NET *51 0.000735063
*CONN
*I *142:B1 I *D sky130_fd_sc_hd__a21oi_1
*I *141:Y O *D sky130_fd_sc_hd__o21ai_0
*CAP
1 *142:B1 0.000194077
2 *141:Y 0.000194077
3 *138:B *142:B1 5.07419e-05
4 *141:A1 *142:B1 6.07575e-06
5 *142:A1 *142:B1 0.00013687
6 *15:21 *142:B1 0.000137578
7 *45:25 *142:B1 1.56428e-05
*RES
1 *141:Y *142:B1 31.9276 
*END

*D_NET *52 0.00232113
*CONN
*I *151:A3 I *D sky130_fd_sc_hd__o41a_4
*I *145:B I *D sky130_fd_sc_hd__or3_1
*I *142:Y O *D sky130_fd_sc_hd__a21oi_1
*CAP
1 *151:A3 0.000401948
2 *145:B 0
3 *142:Y 0.000239617
4 *52:14 0.000641565
5 *151:A3 *82:14 0.000316799
6 *151:A3 *85:10 8.3331e-05
7 *151:A3 *90:6 1.90662e-05
8 *151:A3 *90:10 7.26455e-05
9 *52:14 *151:A4 3.64998e-06
10 *139:B *52:14 3.86607e-05
11 *142:A2 *52:14 0.000118081
12 *145:A *151:A3 0.00016031
13 *151:A2 *151:A3 0.000116151
14 *17:8 *151:A3 8.26527e-05
15 *21:36 *52:14 2.66586e-05
*RES
1 *142:Y *52:14 22.2342 
2 *52:14 *145:B 9.3 
3 *52:14 *151:A3 29.5031 
*END

*D_NET *53 0.000628497
*CONN
*I *144:C I *D sky130_fd_sc_hd__nor3_1
*I *143:Y O *D sky130_fd_sc_hd__a21oi_1
*CAP
1 *144:C 0.000261804
2 *143:Y 0.000261804
3 *144:C *143:A2 8.89673e-05
4 *144:C *143:B1 4.6368e-06
5 *144:C *60:11 0
6 *144:C *65:13 1.12852e-05
*RES
1 *143:Y *144:C 32.883 
*END

*D_NET *54 0.00366326
*CONN
*I *145:C I *D sky130_fd_sc_hd__or3_1
*I *151:A4 I *D sky130_fd_sc_hd__o41a_4
*I *144:Y O *D sky130_fd_sc_hd__nor3_1
*CAP
1 *145:C 0
2 *151:A4 0.000610003
3 *144:Y 0.000663955
4 *54:18 0.00127396
5 *151:A4 *151:B1 3.95724e-05
6 *151:A4 *71:16 0.000238919
7 *54:18 *129:A 7.1401e-05
8 *54:18 *57:42 0.00012177
9 *54:18 *62:11 1.1561e-05
10 *54:18 *62:37 1.79483e-05
11 *126:B1 *54:18 0
12 *129:C *54:18 1.82476e-05
13 *130:A2 *54:18 4.61701e-06
14 *130:B1 *54:18 3.03154e-05
15 *139:B *151:A4 0.000117097
16 *142:A1 *151:A4 0.000204456
17 *145:A *151:A4 0
18 *12:16 *54:18 1.38129e-05
19 *13:12 *54:18 9.13528e-05
20 *13:20 *54:18 2.16091e-05
21 *14:26 *54:18 5.12855e-05
22 *15:21 *151:A4 4.92014e-05
23 *45:10 *151:A4 8.53113e-06
24 *45:10 *54:18 0
25 *52:14 *151:A4 3.64998e-06
*RES
1 *144:Y *54:18 34.1491 
2 *54:18 *151:A4 32.1071 
3 *54:18 *145:C 9.3 
*END

*D_NET *55 0.000971513
*CONN
*I *151:B1 I *D sky130_fd_sc_hd__o41a_4
*I *150:Y O *D sky130_fd_sc_hd__nand2b_1
*CAP
1 *151:B1 0.000298859
2 *150:Y 0.000298859
3 *151:B1 *150:B 0.000100757
4 *151:B1 *71:16 9.99942e-05
5 *151:B1 *80:28 8.35094e-05
6 *151:A2 *151:B1 4.99619e-05
7 *151:A4 *151:B1 3.95724e-05
*RES
1 *150:Y *151:B1 26.0749 
*END

*D_NET *56 0.00374585
*CONN
*P a[0] I
*I *103:A_N I *D sky130_fd_sc_hd__nand2b_1
*I *102:B I *D sky130_fd_sc_hd__xnor2_1
*I *101:B I *D sky130_fd_sc_hd__nand2_1
*CAP
1 a[0] 0.00110237
2 *103:A_N 7.06391e-05
3 *102:B 0
4 *101:B 0.000103628
5 *56:13 0.00019355
6 *56:9 0.00126293
7 *101:B *92:A 3.04704e-05
8 *101:B *101:A 0.000196741
9 *101:B *61:13 3.83041e-05
10 *103:A_N *103:B 8.26692e-05
11 *103:A_N *61:9 1.52184e-05
12 *103:A_N *82:14 9.34489e-05
13 *56:9 *61:9 3.38952e-05
14 *56:9 *82:14 3.67085e-05
15 *56:13 *61:13 0.000275548
16 *133:B1 *101:B 0.000114745
17 *133:B1 *56:13 4.60584e-05
18 *15:10 *101:B 4.89295e-05
*RES
1 a[0] *56:9 6.89742 
2 *56:9 *56:13 7.64735 
3 *56:13 *101:B 13.3279 
4 *56:13 *102:B 9.3 
5 *56:9 *103:A_N 16.479 
*END

*D_NET *57 0.00562671
*CONN
*P a[1] I
*I *97:A I *D sky130_fd_sc_hd__lpflow_isobufsrc_1
*I *100:B I *D sky130_fd_sc_hd__xnor2_1
*I *99:B I *D sky130_fd_sc_hd__nor2_1
*I *128:A2 I *D sky130_fd_sc_hd__a21oi_1
*I *98:B I *D sky130_fd_sc_hd__nand2_1
*CAP
1 a[1] 0.00155252
2 *97:A 0
3 *100:B 0
4 *99:B 0
5 *128:A2 1.3091e-05
6 *98:B 1.29021e-05
7 *57:42 0.000133816
8 *57:23 0.000297288
9 *57:19 0.000231873
10 *57:13 0.00162073
11 *98:B *129:A 2.08512e-05
12 *98:B *62:37 4.66108e-05
13 *128:A2 *99:A 4.82863e-05
14 *128:A2 *129:A 1.83756e-05
15 *57:13 *60:11 0.00034787
16 *57:13 *71:16 0.000282899
17 *57:19 *97:SLEEP 0.000163199
18 *57:19 *71:16 0
19 *57:23 *97:SLEEP 3.83041e-05
20 *57:23 *129:A 3.52046e-05
21 *57:23 *62:37 2.2468e-05
22 *57:23 *62:44 0.000314048
23 *57:42 *99:A 3.68999e-05
24 *57:42 *129:A 0.000164086
25 *125:A *57:19 5.30673e-05
26 *14:10 *57:19 4.47209e-05
27 *14:10 *57:23 5.83121e-06
28 *54:18 *57:42 0.00012177
*RES
1 a[1] *57:13 16.7583 
2 *57:13 *57:19 7.12279 
3 *57:19 *57:23 4.88963 
4 *57:23 *98:B 9.86203 
5 *57:23 *57:42 12.6157 
6 *57:42 *128:A2 9.86203 
7 *57:42 *99:B 9.3 
8 *57:19 *100:B 9.3 
9 *57:13 *97:A 13.8 
*END

*D_NET *58 0.00449257
*CONN
*P a[2] I
*I *121:A2 I *D sky130_fd_sc_hd__a21oi_1
*I *112:B I *D sky130_fd_sc_hd__maj3_1
*I *91:A I *D sky130_fd_sc_hd__clkinv_1
*I *96:B I *D sky130_fd_sc_hd__xnor2_1
*I *95:B I *D sky130_fd_sc_hd__nor2_1
*CAP
1 a[2] 0.000945701
2 *121:A2 9.73191e-06
3 *112:B 0
4 *91:A 0
5 *96:B 3.76611e-05
6 *95:B 2.08101e-05
7 *58:31 0.000114448
8 *58:27 0.000185383
9 *58:25 0.000216078
10 *58:21 0.000277875
11 *58:19 0.000409654
12 *58:13 0.00117388
13 *96:B *96:A 8.65961e-05
14 *96:B *79:90 2.16833e-05
15 *121:A2 *121:B1 4.82863e-05
16 *121:A2 *79:103 4.82863e-05
17 *58:13 *62:5 0
18 *58:13 *65:13 0.000107765
19 *58:19 *121:A1 7.3664e-05
20 *58:19 *143:B1 0
21 *58:19 *78:61 0
22 *58:21 *63:34 9.29176e-05
23 *120:A *58:19 0.000239807
24 *120:A *58:21 0.000163204
25 *120:B *58:19 8.53113e-06
26 *120:C *58:19 4.99619e-05
27 *122:B *96:B 0.000149765
28 *122:B *58:31 1.08758e-05
29 *10:8 *58:19 0
*RES
1 a[2] *58:13 9.38601 
2 *58:13 *58:19 10.2139 
3 *58:19 *58:21 4.87089 
4 *58:21 *58:25 10.7238 
5 *58:25 *58:27 147.807 
6 *58:27 *58:31 10.2929 
7 *58:31 *95:B 9.74962 
8 *58:31 *96:B 11.1547 
9 *58:21 *91:A 9.3 
10 *58:19 *112:B 9.3 
11 *58:13 *121:A2 14.362 
*END

*D_NET *59 0.00634438
*CONN
*P a[3] I
*I *140:B I *D sky130_fd_sc_hd__maj3_1
*I *93:B I *D sky130_fd_sc_hd__nor2_1
*I *94:B I *D sky130_fd_sc_hd__xor2_1
*I *115:A2 I *D sky130_fd_sc_hd__a21oi_1
*I *136:B I *D sky130_fd_sc_hd__nand2b_1
*CAP
1 a[3] 0.00198987
2 *140:B 0
3 *93:B 1.96945e-05
4 *94:B 0
5 *115:A2 0.000126815
6 *136:B 1.52527e-05
7 *59:42 0.000150877
8 *59:40 0.000188233
9 *59:19 0.000217086
10 *59:17 0.00204723
11 *93:B *140:A 1.31519e-05
12 *93:B *64:32 5.94962e-05
13 *115:A2 *113:SLEEP 0
14 *115:A2 *64:13 9.50342e-06
15 *115:A2 *64:26 0.000208255
16 *115:A2 *64:32 2.30292e-05
17 *115:A2 *79:21 5.53249e-06
18 *115:A2 *79:27 1.34361e-05
19 *136:B *140:A 5.39548e-05
20 *136:B *64:32 9.41783e-07
21 *136:B *79:27 3.8707e-05
22 *59:17 *81:8 0.000167847
23 *59:17 *84:10 1.88904e-05
24 *59:19 *140:A 0.000160641
25 *59:19 *79:27 3.90495e-05
26 *59:40 *113:SLEEP 1.7396e-05
27 *59:40 *140:A 0.00012864
28 *59:40 *64:32 1.12578e-05
29 *59:40 *64:39 2.16833e-05
30 *59:42 *64:32 8.5108e-05
31 *114:B *59:17 3.74161e-05
32 *114:B *59:19 0.000161529
33 *114:B *59:40 2.15594e-05
34 *116:B *115:A2 8.65961e-05
35 *116:B *59:42 0.000164874
36 *137:B1 *59:40 8.53113e-06
37 *8:12 *59:40 1.16578e-05
38 *8:12 *59:42 1.60203e-05
39 *26:12 *59:17 4.61701e-06
*RES
1 a[3] *59:17 16.3173 
2 *59:17 *59:19 2.71646 
3 *59:19 *136:B 10.321 
4 *59:19 *59:40 12.5033 
5 *59:40 *59:42 2.28557 
6 *59:42 *115:A2 21.9719 
7 *59:42 *94:B 9.3 
8 *59:40 *93:B 10.3116 
9 *59:17 *140:B 9.3 
*END

*D_NET *60 0.00410579
*CONN
*P a[4] I
*I *134:B I *D sky130_fd_sc_hd__nor2_1
*I *143:A2 I *D sky130_fd_sc_hd__a21oi_1
*I *135:B I *D sky130_fd_sc_hd__xor2_1
*CAP
1 a[4] 0.00124558
2 *134:B 0
3 *143:A2 6.72801e-05
4 *135:B 2.85422e-05
5 *60:17 0.000193867
6 *60:11 0.00134363
7 *135:B *134:A 1.91597e-05
8 *135:B *135:A 4.66108e-05
9 *143:A2 *129:A 1.01851e-05
10 *143:A2 *65:13 9.50342e-06
11 *143:A2 *65:17 0.000159957
12 *60:11 *71:16 7.24291e-05
13 *60:17 *134:A 0.000262092
14 *60:17 *144:A 4.76832e-05
15 *144:B *60:17 9.27264e-05
16 *144:C *143:A2 8.89673e-05
17 *144:C *60:11 0
18 *45:10 *135:B 4.66826e-05
19 *45:10 *60:17 2.30292e-05
20 *57:13 *60:11 0.00034787
*RES
1 a[4] *60:11 15.1664 
2 *60:11 *60:17 4.15899 
3 *60:17 *135:B 10.2929 
4 *60:17 *143:A2 20.979 
5 *60:11 *134:B 9.3 
*END

*D_NET *61 0.00498268
*CONN
*P b[0] I
*I *103:B I *D sky130_fd_sc_hd__nand2b_1
*I *102:A I *D sky130_fd_sc_hd__xnor2_1
*I *101:A I *D sky130_fd_sc_hd__nand2_1
*CAP
1 b[0] 0.00110596
2 *103:B 6.56997e-05
3 *102:A 0
4 *101:A 4.46712e-05
5 *61:13 0.000135813
6 *61:9 0.0012628
7 *101:A *92:A 0.000112731
8 *103:B *216:A 2.25285e-05
9 *103:B *77:35 5.23362e-05
10 *103:B *77:50 0.00010596
11 *61:9 *157:D 3.26735e-05
12 *61:9 *66:15 8.02827e-05
13 *61:9 *77:15 0.000300274
14 *61:9 *77:35 0.000609486
15 *61:9 *82:14 1.73593e-05
16 *61:13 *92:A 0.000227055
17 *101:B *101:A 0.000196741
18 *101:B *61:13 3.83041e-05
19 *103:A_N *103:B 8.26692e-05
20 *103:A_N *61:9 1.52184e-05
21 *157:RESET_B *61:9 0.000164679
22 *56:9 *61:9 3.38952e-05
23 *56:13 *61:13 0.000275548
*RES
1 b[0] *61:9 17.2905 
2 *61:9 *61:13 8.94001 
3 *61:13 *101:A 11.5856 
4 *61:13 *102:A 9.3 
5 *61:9 *103:B 16.4322 
*END

*D_NET *62 0.00610933
*CONN
*P b[1] I
*I *97:SLEEP I *D sky130_fd_sc_hd__lpflow_isobufsrc_1
*I *100:A I *D sky130_fd_sc_hd__xnor2_1
*I *98:A I *D sky130_fd_sc_hd__nand2_1
*I *99:A I *D sky130_fd_sc_hd__nor2_1
*I *128:A1 I *D sky130_fd_sc_hd__a21oi_1
*CAP
1 b[1] 0.00188253
2 *97:SLEEP 0.000116218
3 *100:A 0
4 *98:A 0
5 *99:A 9.31711e-05
6 *128:A1 0
7 *62:44 0.000235706
8 *62:37 0.000268078
9 *62:11 0.000128711
10 *62:5 0.00206666
11 *99:A *129:A 2.01063e-05
12 *62:5 *63:13 0
13 *62:37 *129:A 1.91597e-05
14 *98:B *62:37 4.66108e-05
15 *125:A *97:SLEEP 2.8185e-05
16 *128:A2 *99:A 4.82863e-05
17 *129:C *62:11 0.000129424
18 *12:16 *62:5 0.00013637
19 *12:16 *62:37 7.65277e-05
20 *13:12 *99:A 8.35106e-05
21 *13:12 *62:11 0.000106344
22 *13:12 *62:37 1.92979e-05
23 *54:18 *62:11 1.1561e-05
24 *54:18 *62:37 1.79483e-05
25 *57:19 *97:SLEEP 0.000163199
26 *57:23 *97:SLEEP 3.83041e-05
27 *57:23 *62:37 2.2468e-05
28 *57:23 *62:44 0.000314048
29 *57:42 *99:A 3.68999e-05
30 *58:13 *62:5 0
*RES
1 b[1] *62:5 4.13727 
2 *62:5 *62:11 9.79279 
3 *62:11 *128:A1 9.3 
4 *62:11 *99:A 11.6043 
5 *62:5 *62:37 10.2287 
6 *62:37 *98:A 9.3 
7 *62:37 *62:44 3.57823 
8 *62:44 *100:A 9.3 
9 *62:44 *97:SLEEP 12.4473 
*END

*D_NET *63 0.00436172
*CONN
*P b[2] I
*I *96:A I *D sky130_fd_sc_hd__xnor2_1
*I *95:A I *D sky130_fd_sc_hd__nor2_1
*I *121:A1 I *D sky130_fd_sc_hd__a21oi_1
*I *112:A I *D sky130_fd_sc_hd__maj3_1
*I *106:A I *D sky130_fd_sc_hd__maj3_1
*CAP
1 b[2] 0.000828723
2 *96:A 2.04572e-05
3 *95:A 0
4 *121:A1 0.000237745
5 *112:A 0
6 *106:A 0.000189609
7 *63:54 2.04572e-05
8 *63:34 0.000455999
9 *63:15 0.00049102
10 *63:13 0.000911881
11 *96:A *79:90 0.000109625
12 *106:A *79:15 0.000239921
13 *63:13 *65:13 0.000128685
14 *63:13 *79:9 3.97171e-05
15 *63:13 *79:15 7.90356e-06
16 *63:15 *79:15 7.00066e-05
17 *96:B *96:A 8.65961e-05
18 *106:B *106:A 0.000121413
19 *106:C *106:A 2.36212e-05
20 *120:A *121:A1 0.000138175
21 *120:A *63:34 5.05521e-05
22 *122:B *96:A 2.30292e-05
23 *10:8 *106:A 0
24 *10:8 *121:A1 0
25 *10:8 *63:15 0
26 *10:14 *106:A 0
27 *58:19 *121:A1 7.3664e-05
28 *58:21 *63:34 9.29176e-05
29 *62:5 *63:13 0
*RES
1 b[2] *63:13 9.8782 
2 *63:13 *63:15 2.04203 
3 *63:15 *106:A 19.439 
4 *63:15 *63:34 8.07823 
5 *63:34 *112:A 9.3 
6 *63:34 *121:A1 23.0585 
7 *63:13 *63:54 4.5 
8 *63:54 *95:A 9.3 
9 *63:54 *96:A 10.7238 
*END

*D_NET *64 0.00566057
*CONN
*P b[3] I
*I *94:A I *D sky130_fd_sc_hd__xor2_1
*I *140:A I *D sky130_fd_sc_hd__maj3_1
*I *136:A_N I *D sky130_fd_sc_hd__nand2b_1
*I *93:A I *D sky130_fd_sc_hd__nor2_1
*I *115:A1 I *D sky130_fd_sc_hd__a21oi_1
*CAP
1 b[3] 0.00178682
2 *94:A 0
3 *140:A 0.000101403
4 *136:A_N 0
5 *93:A 0
6 *115:A1 0
7 *64:39 0.00011276
8 *64:32 7.868e-05
9 *64:26 0.000160689
10 *64:13 0.00188018
11 *140:A *79:27 2.07155e-05
12 *64:13 out[0] 0
13 *64:13 out[1] 0.000330525
14 *64:26 *79:27 9.36768e-05
15 *64:32 *79:27 0.000279787
16 *64:39 *79:27 2.05056e-05
17 *93:B *140:A 1.31519e-05
18 *93:B *64:32 5.94962e-05
19 *115:A2 *64:13 9.50342e-06
20 *115:A2 *64:26 0.000208255
21 *115:A2 *64:32 2.30292e-05
22 *116:B *64:26 1.91597e-05
23 *116:C *64:13 0
24 *116:C *64:26 0
25 *136:B *140:A 5.39548e-05
26 *136:B *64:32 9.41783e-07
27 *59:19 *140:A 0.000160641
28 *59:40 *140:A 0.00012864
29 *59:40 *64:32 1.12578e-05
30 *59:40 *64:39 2.16833e-05
31 *59:42 *64:32 8.5108e-05
*RES
1 b[3] *64:13 28.1058 
2 *64:13 *115:A1 13.8 
3 *64:13 *64:26 7.85342 
4 *64:26 *64:32 4.04659 
5 *64:32 *93:A 9.3 
6 *64:32 *64:39 0.562026 
7 *64:39 *136:A_N 9.3 
8 *64:39 *140:A 12.897 
9 *64:26 *94:A 9.3 
*END

*D_NET *65 0.00558375
*CONN
*P b[4] I
*I *143:A1 I *D sky130_fd_sc_hd__a21oi_1
*I *134:A I *D sky130_fd_sc_hd__nor2_1
*I *135:A I *D sky130_fd_sc_hd__xor2_1
*CAP
1 b[4] 0.00167227
2 *143:A1 0
3 *134:A 0.000186644
4 *135:A 2.99907e-05
5 *65:17 0.000314106
6 *65:13 0.00176974
7 *134:A *79:138 0.000277882
8 *135:A *79:103 4.77719e-05
9 *135:A *79:138 1.33285e-05
10 *65:13 *79:9 0.000499656
11 *65:17 *129:A 2.73058e-05
12 *65:17 *143:B1 0
13 *135:B *134:A 1.91597e-05
14 *135:B *135:A 4.66108e-05
15 *143:A2 *65:13 9.50342e-06
16 *143:A2 *65:17 0.000159957
17 *144:C *65:13 1.12852e-05
18 *58:13 *65:13 0.000107765
19 *60:17 *134:A 0.000262092
20 *63:13 *65:13 0.000128685
*RES
1 b[4] *65:13 12.6887 
2 *65:13 *65:17 6.86051 
3 *65:17 *135:A 10.2929 
4 *65:17 *134:A 15.0701 
5 *65:13 *143:A1 13.8 
*END

*D_NET *66 0.0053966
*CONN
*P clk I
*I *216:A I *D sky130_fd_sc_hd__clkbuf_16
*CAP
1 clk 0.00105785
2 *216:A 0.00107398
3 *66:15 0.00213183
4 *216:A *152:A 0.000380478
5 *216:A *217:A 0.000200719
6 *216:A *218:A 4.82863e-05
7 *216:A *77:50 8.65961e-05
8 *103:B *216:A 2.25285e-05
9 *133:B1 *216:A 0.000314042
10 *61:9 *66:15 8.02827e-05
*RES
1 clk *66:15 27.6686 
2 *66:15 *216:A 33.1299 
*END

*D_NET *67 0.00191879
*CONN
*P out[0] O
*I *149:X O *D sky130_fd_sc_hd__mux2_8
*CAP
1 out[0] 0.000959395
2 *149:X 0.000959395
3 *64:13 out[0] 0
*RES
1 *149:X out[0] 31.5661 
*END

*D_NET *68 0.00432763
*CONN
*P out[1] O
*I *148:X O *D sky130_fd_sc_hd__mux2_8
*CAP
1 out[1] 0.0019132
2 *148:X 0.0019132
3 out[1] *217:A 0.000155056
4 out[1] *80:41 1.56428e-05
5 *64:13 out[1] 0.000330525
*RES
1 *148:X out[1] 29.3551 
*END

*D_NET *69 0.00273864
*CONN
*P out[2] O
*I *147:X O *D sky130_fd_sc_hd__mux2_8
*CAP
1 out[2] 0.00114092
2 *147:X 0.00114092
3 out[2] *82:14 9.29751e-06
4 *125:A out[2] 6.02639e-05
5 *125:B out[2] 0.000136884
6 *131:A2 out[2] 0.000162085
7 *14:10 out[2] 0
8 *17:12 out[2] 8.8266e-05
*RES
1 *147:X out[2] 24.4983 
*END

*D_NET *70 0.0027272
*CONN
*P out[3] O
*I *146:X O *D sky130_fd_sc_hd__mux2_8
*CAP
1 out[3] 0.00123726
2 *146:X 0.00123726
3 out[3] *146:A0 9.428e-05
4 out[3] *159:CLK 0.000141096
5 out[3] *84:10 1.73021e-05
*RES
1 *146:X out[3] 23.0756 
*END

*D_NET *71 0.00498803
*CONN
*P out[4] O
*I *151:X O *D sky130_fd_sc_hd__o41a_4
*CAP
1 out[4] 0.000540757
2 *151:X 0.00127519
3 *71:16 0.00181595
4 *71:16 *147:A0 0.000105841
5 *71:16 *147:S 0
6 *71:16 *150:A_N 3.04982e-05
7 *71:16 *80:13 0
8 *104:B1 *71:16 6.95753e-05
9 *125:A *71:16 3.76596e-05
10 *125:B *71:16 6.31891e-05
11 *151:A2 *71:16 2.75229e-05
12 *151:A4 *71:16 0.000238919
13 *151:B1 *71:16 9.99942e-05
14 *160:RESET_B *71:16 5.20968e-05
15 *17:8 *71:16 0.000275503
16 *57:13 *71:16 0.000282899
17 *57:19 *71:16 0
18 *60:11 *71:16 7.24291e-05
*RES
1 *151:X *71:16 48.5115 
2 *71:16 out[4] 1.5683 
*END

*D_NET *72 0.000583358
*CONN
*I *149:A1 I *D sky130_fd_sc_hd__mux2_8
*I *156:Q O *D sky130_fd_sc_hd__dfrtp_1
*CAP
1 *149:A1 0.000210079
2 *156:Q 0.000210079
3 *149:A1 *149:A0 0
4 *149:A1 *156:D 0.000163199
5 *156:RESET_B *149:A1 0
*RES
1 *156:Q *149:A1 22.1967 
*END

*D_NET *73 0.000379859
*CONN
*I *148:A1 I *D sky130_fd_sc_hd__mux2_8
*I *157:Q O *D sky130_fd_sc_hd__dfrtp_1
*CAP
1 *148:A1 0.000176663
2 *157:Q 0.000176663
3 *148:A1 *77:35 0
4 *148:A1 *80:41 2.65337e-05
*RES
1 *157:Q *148:A1 21.8127 
*END

*D_NET *74 0.000281202
*CONN
*I *147:A1 I *D sky130_fd_sc_hd__mux2_8
*I *158:Q O *D sky130_fd_sc_hd__dfrtp_1
*CAP
1 *147:A1 0.000106897
2 *158:Q 0.000106897
3 *147:A1 *147:A0 0
4 *147:A1 *147:S 6.74079e-05
*RES
1 *158:Q *147:A1 20.8385 
*END

*D_NET *75 0.000351591
*CONN
*I *146:A1 I *D sky130_fd_sc_hd__mux2_8
*I *159:Q O *D sky130_fd_sc_hd__dfrtp_1
*CAP
1 *146:A1 0.000141059
2 *159:Q 0.000141059
3 *146:A1 *149:S 6.94729e-05
4 *146:A1 *217:A 0
5 *146:A1 *81:8 0
6 *133:B1 *146:A1 0
*RES
1 *159:Q *146:A1 21.2694 
*END

*D_NET *76 0.00059471
*CONN
*I *150:A_N I *D sky130_fd_sc_hd__nand2b_1
*I *160:Q O *D sky130_fd_sc_hd__dfrtp_1
*CAP
1 *150:A_N 0.000212483
2 *160:Q 0.000212483
3 *150:A_N *80:13 0
4 *160:RESET_B *150:A_N 0.000139245
5 *71:16 *150:A_N 3.04982e-05
*RES
1 *160:Q *150:A_N 32.4522 
*END

*D_NET *77 0.00758415
*CONN
*P reset I
*I *152:A I *D sky130_fd_sc_hd__clkinv_1
*I *155:A I *D sky130_fd_sc_hd__clkinv_1
*I *92:A I *D sky130_fd_sc_hd__clkinv_1
*I *153:A I *D sky130_fd_sc_hd__clkinv_1
*I *154:A I *D sky130_fd_sc_hd__clkinv_1
*CAP
1 reset 0.000576307
2 *152:A 0.000450047
3 *155:A 0
4 *92:A 0.000568301
5 *153:A 0
6 *154:A 0.00038803
7 *77:50 0.000531575
8 *77:35 0.000991222
9 *77:17 0.000512842
10 *77:15 0.00104251
11 *152:A *147:S 8.75474e-05
12 *152:A *148:S 0
13 *152:A *80:13 0.000285081
14 *77:35 *148:S 8.98727e-05
15 *77:50 *148:S 4.19967e-05
16 *101:A *92:A 0.000112731
17 *101:B *92:A 3.04704e-05
18 *103:B *77:35 5.23362e-05
19 *103:B *77:50 0.00010596
20 *148:A1 *77:35 0
21 *156:RESET_B *154:A 6.60261e-06
22 *157:RESET_B *77:17 1.54837e-05
23 *157:RESET_B *77:35 9.60582e-07
24 *159:RESET_B *92:A 4.99619e-05
25 *160:RESET_B *152:A 1.83847e-05
26 *216:A *152:A 0.000380478
27 *216:A *77:50 8.65961e-05
28 *15:10 *92:A 2.203e-05
29 *61:9 *77:15 0.000300274
30 *61:9 *77:35 0.000609486
31 *61:13 *92:A 0.000227055
*RES
1 reset *77:15 17.2755 
2 *77:15 *77:17 1.85469 
3 *77:17 *154:A 14.6018 
4 *77:17 *153:A 9.3 
5 *77:15 *77:35 14.86 
6 *77:35 *92:A 22.9798 
7 *77:35 *77:50 7.21646 
8 *77:50 *155:A 9.3 
9 *77:50 *152:A 30.8332 
*END

*D_NET *78 0.00937351
*CONN
*P s[0] I
*I *132:A I *D sky130_fd_sc_hd__nor2_1
*I *143:B1 I *D sky130_fd_sc_hd__a21oi_1
*I *121:B1 I *D sky130_fd_sc_hd__a21oi_1
*I *128:B1 I *D sky130_fd_sc_hd__a21oi_1
*I *107:A I *D sky130_fd_sc_hd__nand2_1
*I *113:SLEEP I *D sky130_fd_sc_hd__lpflow_isobufsrc_1
*I *115:B1 I *D sky130_fd_sc_hd__a21oi_1
*CAP
1 s[0] 0.000964719
2 *132:A 9.55095e-05
3 *143:B1 0.00018555
4 *121:B1 0.000120958
5 *128:B1 7.40019e-05
6 *107:A 3.89063e-05
7 *113:SLEEP 0.000523134
8 *115:B1 0
9 *78:61 0.000413195
10 *78:50 0.000665415
11 *78:37 0.000624878
12 *78:33 0.000706116
13 *78:20 0.00134482
14 *78:13 0.00127704
15 *113:SLEEP *84:10 0
16 *121:B1 *79:103 0.000178682
17 *132:A *133:A1 4.66108e-05
18 *132:A *79:35 3.66286e-05
19 *143:B1 *129:A 1.59273e-05
20 *78:33 *79:35 0.000123579
21 *78:61 *129:A 7.18452e-06
22 *110:A2 *78:50 0.000109441
23 *114:B *113:SLEEP 0
24 *115:A2 *113:SLEEP 0
25 *116:C *78:13 3.45679e-05
26 *118:A1 *113:SLEEP 0
27 *120:B *78:50 0
28 *120:C *128:B1 2.49909e-05
29 *120:C *78:50 0.000237127
30 *121:A2 *121:B1 4.82863e-05
31 *122:C *121:B1 3.02252e-05
32 *123:A2 *78:50 0
33 *124:B1 *78:50 4.62396e-05
34 *129:C *128:B1 1.08758e-05
35 *137:B1 *113:SLEEP 0
36 *141:A2 *78:50 0
37 *141:B1 *78:50 8.71001e-05
38 *142:A2 *107:A 2.49909e-05
39 *144:C *143:B1 4.6368e-06
40 *8:12 *113:SLEEP 7.70938e-05
41 *15:21 *78:37 0.00015997
42 *15:21 *78:50 0.000667205
43 *20:14 *113:SLEEP 0
44 *21:14 *107:A 1.08758e-05
45 *21:14 *78:37 0
46 *21:14 *78:50 0
47 *21:36 *107:A 4.66108e-05
48 *26:12 *78:50 0
49 *27:12 *78:50 0
50 *35:8 *121:B1 0.000174628
51 *43:8 *78:33 1.11132e-05
52 *45:10 *78:50 5.00617e-05
53 *45:10 *78:61 5.72091e-05
54 *58:19 *143:B1 0
55 *58:19 *78:61 0
56 *59:40 *113:SLEEP 1.7396e-05
57 *65:17 *143:B1 0
*RES
1 s[0] *78:13 22.1032 
2 *78:13 *115:B1 9.3 
3 *78:13 *78:20 5.30178 
4 *78:20 *113:SLEEP 28.3041 
5 *78:20 *78:33 9.17976 
6 *78:33 *78:37 6.86051 
7 *78:37 *107:A 14.8116 
8 *78:37 *78:50 15.0998 
9 *78:50 *128:B1 15.2238 
10 *78:50 *78:61 2.67899 
11 *78:61 *121:B1 18.6896 
12 *78:61 *143:B1 17.1534 
13 *78:33 *132:A 11.1734 
*END

*D_NET *79 0.0134231
*CONN
*P s[1] I
*I *144:A I *D sky130_fd_sc_hd__nor3_1
*I *129:A I *D sky130_fd_sc_hd__nor3_1
*I *122:A I *D sky130_fd_sc_hd__nor3_1
*I *113:A I *D sky130_fd_sc_hd__lpflow_isobufsrc_1
*I *116:A I *D sky130_fd_sc_hd__nor3_1
*I *107:B I *D sky130_fd_sc_hd__nand2_1
*I *133:A1 I *D sky130_fd_sc_hd__o22ai_1
*I *132:B I *D sky130_fd_sc_hd__nor2_1
*CAP
1 s[1] 0.0009467
2 *144:A 8.08377e-06
3 *129:A 0.000628949
4 *122:A 2.08101e-05
5 *113:A 3.08334e-05
6 *116:A 0
7 *107:B 1.11049e-05
8 *133:A1 0.000121774
9 *132:B 0
10 *79:140 7.11815e-05
11 *79:138 0.000298683
12 *79:103 0.00118477
13 *79:90 0.000655983
14 *79:59 5.2801e-05
15 *79:57 6.89768e-05
16 *79:35 0.000156518
17 *79:31 0.000125749
18 *79:29 9.10051e-05
19 *79:27 0.000780548
20 *79:21 0.00135774
21 *79:15 0.00108477
22 *79:9 0.0017111
23 *96:A *79:90 0.000109625
24 *96:B *79:90 2.16833e-05
25 *98:B *129:A 2.08512e-05
26 *99:A *129:A 2.01063e-05
27 *106:A *79:15 0.000239921
28 *106:C *79:15 7.45625e-05
29 *114:B *79:27 0.000238919
30 *115:A2 *79:21 5.53249e-06
31 *115:A2 *79:27 1.34361e-05
32 *116:B *79:27 8.73389e-06
33 *116:C *79:27 2.45182e-05
34 *121:A2 *79:103 4.82863e-05
35 *121:B1 *79:103 0.000178682
36 *122:B *79:90 6.25897e-05
37 *122:C *79:90 6.63966e-05
38 *122:C *79:103 9.27255e-06
39 *128:A2 *129:A 1.83756e-05
40 *129:C *129:A 5.83121e-06
41 *132:A *133:A1 4.66108e-05
42 *132:A *79:35 3.66286e-05
43 *134:A *79:138 0.000277882
44 *135:A *79:103 4.77719e-05
45 *135:A *79:138 1.33285e-05
46 *136:B *79:27 3.8707e-05
47 *140:A *79:27 2.07155e-05
48 *142:A2 *107:B 2.70167e-05
49 *143:A2 *129:A 1.01851e-05
50 *143:B1 *129:A 1.59273e-05
51 *144:B *144:A 4.89295e-05
52 *8:12 *79:21 0
53 *12:16 *129:A 1.88602e-05
54 *15:10 *133:A1 3.25831e-05
55 *15:21 *133:A1 0.000185398
56 *21:14 *107:B 4.76871e-05
57 *21:14 *79:27 0.00016346
58 *21:14 *79:57 4.68714e-05
59 *26:12 *79:27 7.66083e-05
60 *43:8 *79:35 6.50312e-05
61 *45:10 *129:A 7.23533e-05
62 *50:6 *79:27 9.27255e-06
63 *54:18 *129:A 7.1401e-05
64 *57:23 *129:A 3.52046e-05
65 *57:42 *129:A 0.000164086
66 *59:19 *79:27 3.90495e-05
67 *60:17 *144:A 4.76832e-05
68 *62:37 *129:A 1.91597e-05
69 *63:13 *79:9 3.97171e-05
70 *63:13 *79:15 7.90356e-06
71 *63:15 *79:15 7.00066e-05
72 *64:26 *79:27 9.36768e-05
73 *64:32 *79:27 0.000279787
74 *64:39 *79:27 2.05056e-05
75 *65:13 *79:9 0.000499656
76 *65:17 *129:A 2.73058e-05
77 *78:33 *79:35 0.000123579
78 *78:61 *129:A 7.18452e-06
*RES
1 s[1] *79:9 10.9793 
2 *79:9 *79:15 15.3846 
3 *79:15 *79:21 16.1714 
4 *79:21 *79:27 18.2134 
5 *79:27 *79:29 9.3 
6 *79:29 *79:31 95.6398 
7 *79:31 *79:35 11.1547 
8 *79:35 *132:B 9.3 
9 *79:35 *133:A1 21.8595 
10 *79:27 *79:57 9.86203 
11 *79:57 *79:59 43.4727 
12 *79:59 *107:B 19.162 
13 *79:21 *116:A 13.8 
14 *79:15 *113:A 9.86203 
15 *79:9 *79:90 10.3825 
16 *79:90 *122:A 9.74962 
17 *79:90 *79:103 6.74431 
18 *79:103 *129:A 39.6646 
19 *79:103 *79:138 13.3279 
20 *79:138 *79:140 60.8617 
21 *79:140 *144:A 19.162 
*END

*D_NET *80 0.00656772
*CONN
*P sync I
*I *147:S I *D sky130_fd_sc_hd__mux2_8
*I *151:A1 I *D sky130_fd_sc_hd__o41a_4
*I *146:S I *D sky130_fd_sc_hd__mux2_8
*I *149:S I *D sky130_fd_sc_hd__mux2_8
*I *148:S I *D sky130_fd_sc_hd__mux2_8
*I *150:B I *D sky130_fd_sc_hd__nand2b_1
*CAP
1 sync 0.000648156
2 *147:S 0.000226266
3 *151:A1 0
4 *146:S 1.77753e-05
5 *149:S 0.000279853
6 *148:S 0.000951848
7 *150:B 2.82474e-05
8 *80:41 0.000924084
9 *80:28 0.000550981
10 *80:13 0.000428256
11 *80:7 0.00104884
12 *147:S *147:A0 0
13 *148:S *82:14 0
14 *149:S *149:A0 0.000139238
15 *149:S *81:8 0.000252282
16 *80:41 *148:A0 1.4399e-05
17 out[1] *80:41 1.56428e-05
18 *146:A1 *149:S 6.94729e-05
19 *147:A1 *147:S 6.74079e-05
20 *148:A1 *80:41 2.65337e-05
21 *150:A_N *80:13 0
22 *151:B1 *150:B 0.000100757
23 *151:B1 *80:28 8.35094e-05
24 *152:A *147:S 8.75474e-05
25 *152:A *148:S 0
26 *152:A *80:13 0.000285081
27 *158:RESET_B *147:S 5.20968e-05
28 *160:RESET_B *148:S 0.000137571
29 *17:8 *148:S 0
30 *71:16 *147:S 0
31 *71:16 *80:13 0
32 *77:35 *148:S 8.98727e-05
33 *77:50 *148:S 4.19967e-05
*RES
1 sync *80:7 5.15228 
2 *80:7 *80:13 9.17418 
3 *80:13 *150:B 10.8643 
4 *80:13 *80:28 4.81469 
5 *80:28 *148:S 16.7747 
6 *148:S *80:41 10.8565 
7 *80:41 *149:S 16.4 
8 *80:41 *146:S 0.384051 
9 *80:28 *151:A1 9.3 
10 *80:7 *147:S 10.523 
*END

*D_NET *81 0.00342512
*CONN
*I *156:D I *D sky130_fd_sc_hd__dfrtp_1
*I *149:A0 I *D sky130_fd_sc_hd__mux2_8
*I *133:Y O *D sky130_fd_sc_hd__o22ai_1
*CAP
1 *156:D 0.000391349
2 *149:A0 0.000190169
3 *133:Y 0.000329994
4 *81:8 0.000911512
5 *156:D *217:A 0.000324368
6 *156:D *89:8 0.000268947
7 *146:A1 *81:8 0
8 *149:A1 *149:A0 0
9 *149:A1 *156:D 0.000163199
10 *149:S *149:A0 0.000139238
11 *149:S *81:8 0.000252282
12 *156:RESET_B *149:A0 9.18456e-06
13 *15:10 *81:8 0.000231557
14 *15:21 *81:8 4.54719e-05
15 *59:17 *81:8 0.000167847
*RES
1 *133:Y *81:8 22.8486 
2 *81:8 *149:A0 17.7904 
3 *81:8 *156:D 25.2841 
*END

*D_NET *82 0.00345227
*CONN
*I *148:A0 I *D sky130_fd_sc_hd__mux2_8
*I *157:D I *D sky130_fd_sc_hd__dfrtp_1
*I *131:Y O *D sky130_fd_sc_hd__o21ai_0
*CAP
1 *148:A0 3.81447e-05
2 *157:D 0.000227541
3 *131:Y 0.000869018
4 *82:14 0.0011347
5 *82:14 *218:A 0.000241192
6 *82:14 *90:27 0.000116853
7 out[2] *82:14 9.29751e-06
8 *103:A_N *82:14 9.34489e-05
9 *104:A2 *82:14 0.000116165
10 *125:B *82:14 0
11 *126:B1 *82:14 0
12 *131:A2 *82:14 3.67779e-05
13 *131:B1 *82:14 0.000120655
14 *148:S *82:14 0
15 *151:A3 *82:14 0.000316799
16 *157:RESET_B *157:D 3.05373e-05
17 *17:8 *82:14 0
18 *56:9 *82:14 3.67085e-05
19 *61:9 *157:D 3.26735e-05
20 *61:9 *82:14 1.73593e-05
21 *80:41 *148:A0 1.4399e-05
*RES
1 *131:Y *82:14 36.4309 
2 *82:14 *157:D 18.5585 
3 *82:14 *148:A0 14.362 
*END

*D_NET *83 0.00326307
*CONN
*I *147:A0 I *D sky130_fd_sc_hd__mux2_8
*I *158:D I *D sky130_fd_sc_hd__dfrtp_1
*I *124:Y O *D sky130_fd_sc_hd__o31ai_1
*CAP
1 *147:A0 0.00044542
2 *158:D 0
3 *124:Y 0.000576964
4 *83:14 0.000840702
5 *83:10 0.00045838
6 *83:8 0.000640061
7 *83:14 *219:A 8.03844e-05
8 *124:B1 *83:8 4.7101e-05
9 *147:A1 *147:A0 0
10 *147:S *147:A0 0
11 *14:26 *83:8 2.44495e-06
12 *21:14 *83:8 4.66108e-05
13 *27:8 *83:8 1.91597e-05
14 *71:16 *147:A0 0.000105841
*RES
1 *124:Y *83:8 26.4871 
2 *83:8 *83:10 60.8617 
3 *83:10 *83:14 14.9437 
4 *83:14 *158:D 9.3 
5 *83:14 *147:A0 25.6391 
*END

*D_NET *84 0.0020972
*CONN
*I *159:D I *D sky130_fd_sc_hd__dfrtp_1
*I *146:A0 I *D sky130_fd_sc_hd__mux2_8
*I *118:Y O *D sky130_fd_sc_hd__o21ai_0
*CAP
1 *159:D 0
2 *146:A0 0.000418953
3 *118:Y 0.000532174
4 *84:10 0.000951127
5 out[3] *146:A0 9.428e-05
6 out[3] *84:10 1.73021e-05
7 *113:SLEEP *84:10 0
8 *114:B *84:10 0
9 *118:A2 *84:10 4.82919e-05
10 *118:B1 *84:10 1.61831e-05
11 *26:12 *84:10 0
12 *59:17 *84:10 1.88904e-05
*RES
1 *118:Y *84:10 24.4785 
2 *84:10 *146:A0 21.1251 
3 *84:10 *159:D 13.8 
*END

*D_NET *85 0.000946148
*CONN
*I *160:D I *D sky130_fd_sc_hd__dfrtp_1
*I *145:X O *D sky130_fd_sc_hd__or3_1
*CAP
1 *160:D 0
2 *145:X 6.98939e-05
3 *85:26 7.71057e-05
4 *85:20 0.000131331
5 *85:18 5.65005e-05
6 *85:16 2.47536e-05
7 *85:14 4.23013e-05
8 *85:10 8.97171e-05
9 *85:14 *90:12 1.74675e-05
10 *85:16 *90:12 4.55845e-05
11 *85:20 *90:12 3.45561e-05
12 *85:26 *160:CLK 2.30292e-05
13 *126:B1 *85:26 4.99619e-05
14 *151:A2 *85:26 0.000200615
15 *151:A3 *85:10 8.3331e-05
*RES
1 *145:X *85:10 29.8218 
2 *85:10 *85:14 35.0338 
3 *85:14 *85:16 43.4727 
4 *85:16 *85:18 10.4846 
5 *85:18 *85:20 78.2508 
6 *85:20 *85:26 43.8065 
7 *85:26 *160:D 9.3 
*END

*D_NET *88 0.00380282
*CONN
*I *218:A I *D sky130_fd_sc_hd__clkbuf_16
*I *217:A I *D sky130_fd_sc_hd__clkbuf_16
*I *216:X O *D sky130_fd_sc_hd__clkbuf_16
*CAP
1 *218:A 0.000343526
2 *217:A 0.0007193
3 *216:X 0
4 *88:4 0.00106283
5 *217:A *157:CLK 0.000236643
6 *217:A *89:8 0.000216299
7 out[1] *217:A 0.000155056
8 *126:B1 *218:A 8.18098e-05
9 *133:B1 *217:A 0.000172797
10 *146:A1 *217:A 0
11 *156:D *217:A 0.000324368
12 *216:A *217:A 0.000200719
13 *216:A *218:A 4.82863e-05
14 *82:14 *218:A 0.000241192
*RES
1 *216:X *88:4 9.3 
2 *88:4 *217:A 36.9218 
3 *88:4 *218:A 27.5922 
*END

*D_NET *89 0.00433202
*CONN
*I *157:CLK I *D sky130_fd_sc_hd__dfrtp_1
*I *156:CLK I *D sky130_fd_sc_hd__dfrtp_1
*I *159:CLK I *D sky130_fd_sc_hd__dfrtp_1
*I *217:X O *D sky130_fd_sc_hd__clkbuf_16
*CAP
1 *157:CLK 0.000157371
2 *156:CLK 0
3 *159:CLK 0.000352516
4 *217:X 0
5 *89:14 0.0005843
6 *89:12 0.000282947
7 *89:8 0.000992847
8 *89:4 0.00109905
9 out[3] *159:CLK 0.000141096
10 *156:D *89:8 0.000268947
11 *217:A *157:CLK 0.000236643
12 *217:A *89:8 0.000216299
*RES
1 *217:X *89:4 9.3 
2 *89:4 *89:8 15.5494 
3 *89:8 *89:12 10.2929 
4 *89:12 *89:14 269.53 
5 *89:14 *159:CLK 25.1944 
6 *89:8 *156:CLK 9.3 
7 *89:4 *157:CLK 13.2154 
*END

*D_NET *90 0.00225868
*CONN
*I *158:CLK I *D sky130_fd_sc_hd__dfrtp_1
*I *219:A I *D sky130_fd_sc_hd__clkbuf_4
*I *160:CLK I *D sky130_fd_sc_hd__dfrtp_1
*I *218:X O *D sky130_fd_sc_hd__clkbuf_16
*CAP
1 *158:CLK 0
2 *219:A 9.36298e-05
3 *160:CLK 3.94146e-05
4 *218:X 0.000394982
5 *90:27 0.000156192
6 *90:12 0.000170816
7 *90:10 0.000309817
8 *90:6 0.000635961
9 *126:B1 *160:CLK 4.82863e-05
10 *126:B1 *90:27 0
11 *151:A3 *90:6 1.90662e-05
12 *151:A3 *90:10 7.26455e-05
13 *82:14 *90:27 0.000116853
14 *83:14 *219:A 8.03844e-05
15 *85:14 *90:12 1.74675e-05
16 *85:16 *90:12 4.55845e-05
17 *85:20 *90:12 3.45561e-05
18 *85:26 *160:CLK 2.30292e-05
*RES
1 *218:X *90:6 14.6018 
2 *90:6 *90:10 12.0165 
3 *90:10 *90:12 182.585 
4 *90:12 *160:CLK 19.5929 
5 *90:6 *90:27 10.7235 
6 *90:27 *219:A 11.5856 
7 *90:27 *158:CLK 9.3 
*END
